node((0,0)).
node((0,1)).
node((0,10)).
node((0,11)).
node((0,12)).
node((0,13)).
node((0,14)).
node((0,15)).
node((0,16)).
node((0,17)).
node((0,18)).
node((0,19)).
node((0,2)).
node((0,3)).
node((0,4)).
node((0,5)).
node((0,6)).
node((0,7)).
node((0,8)).
node((0,9)).
node((1,0)).
node((10,0)).
node((10,1)).
node((10,10)).
node((10,11)).
node((10,12)).
node((10,13)).
node((10,14)).
node((10,15)).
node((10,16)).
node((10,17)).
node((10,18)).
node((10,19)).
node((10,2)).
node((10,3)).
node((10,4)).
node((10,5)).
node((10,6)).
node((10,7)).
node((10,8)).
node((10,9)).
node((1,1)).
node((1,10)).
node((11,0)).
node((1,11)).
node((11,1)).
node((11,10)).
node((11,11)).
node((11,12)).
node((11,13)).
node((11,14)).
node((11,15)).
node((11,16)).
node((11,17)).
node((11,18)).
node((11,19)).
node((1,12)).
node((11,2)).
node((1,13)).
node((11,3)).
node((1,14)).
node((11,4)).
node((1,15)).
node((11,5)).
node((1,16)).
node((11,6)).
node((1,17)).
node((11,7)).
node((1,18)).
node((11,8)).
node((1,19)).
node((11,9)).
node((1,2)).
node((12,0)).
node((12,1)).
node((12,10)).
node((12,11)).
node((12,12)).
node((12,13)).
node((12,14)).
node((12,15)).
node((12,16)).
node((12,17)).
node((12,18)).
node((12,19)).
node((12,2)).
node((12,3)).
node((12,4)).
node((12,5)).
node((12,6)).
node((12,7)).
node((12,8)).
node((12,9)).
node((1,3)).
node((13,0)).
node((13,1)).
node((13,10)).
node((13,11)).
node((13,12)).
node((13,13)).
node((13,14)).
node((13,15)).
node((13,16)).
node((13,17)).
node((13,18)).
node((13,19)).
node((13,2)).
node((13,3)).
node((13,4)).
node((13,5)).
node((13,6)).
node((13,7)).
node((13,8)).
node((13,9)).
node((1,4)).
node((14,0)).
node((14,1)).
node((14,10)).
node((14,11)).
node((14,12)).
node((14,13)).
node((14,14)).
node((14,15)).
node((14,16)).
node((14,17)).
node((14,18)).
node((14,19)).
node((14,2)).
node((14,3)).
node((14,4)).
node((14,5)).
node((14,6)).
node((14,7)).
node((14,8)).
node((14,9)).
node((1,5)).
node((15,0)).
node((15,1)).
node((15,10)).
node((15,11)).
node((15,12)).
node((15,13)).
node((15,14)).
node((15,15)).
node((15,16)).
node((15,17)).
node((15,18)).
node((15,19)).
node((15,2)).
node((15,3)).
node((15,4)).
node((15,5)).
node((15,6)).
node((15,7)).
node((15,8)).
node((15,9)).
node((1,6)).
node((16,0)).
node((16,1)).
node((16,10)).
node((16,11)).
node((16,12)).
node((16,13)).
node((16,14)).
node((16,15)).
node((16,16)).
node((16,17)).
node((16,18)).
node((16,19)).
node((16,2)).
node((16,3)).
node((16,4)).
node((16,5)).
node((16,6)).
node((16,7)).
node((16,8)).
node((16,9)).
node((1,7)).
node((17,0)).
node((17,1)).
node((17,10)).
node((17,11)).
node((17,12)).
node((17,13)).
node((17,14)).
node((17,15)).
node((17,16)).
node((17,17)).
node((17,18)).
node((17,19)).
node((17,2)).
node((17,3)).
node((17,4)).
node((17,5)).
node((17,6)).
node((17,7)).
node((17,8)).
node((17,9)).
node((1,8)).
node((18,0)).
node((18,1)).
node((18,10)).
node((18,11)).
node((18,12)).
node((18,13)).
node((18,14)).
node((18,15)).
node((18,16)).
node((18,17)).
node((18,18)).
node((18,19)).
node((18,2)).
node((18,3)).
node((18,4)).
node((18,5)).
node((18,6)).
node((18,7)).
node((18,8)).
node((18,9)).
node((1,9)).
node((19,0)).
node((19,1)).
node((19,10)).
node((19,11)).
node((19,12)).
node((19,13)).
node((19,14)).
node((19,15)).
node((19,16)).
node((19,17)).
node((19,18)).
node((19,19)).
node((19,2)).
node((19,3)).
node((19,4)).
node((19,5)).
node((19,6)).
node((19,7)).
node((19,8)).
node((19,9)).
node((2,0)).
node((20,0)).
node((20,1)).
node((20,10)).
node((20,11)).
node((20,12)).
node((20,13)).
node((20,14)).
node((20,15)).
node((20,16)).
node((20,17)).
node((20,18)).
node((20,19)).
node((20,2)).
node((20,3)).
node((20,4)).
node((20,5)).
node((20,6)).
node((20,7)).
node((20,8)).
node((20,9)).
node((2,1)).
node((2,10)).
node((21,0)).
node((2,11)).
node((21,1)).
node((21,10)).
node((21,11)).
node((21,12)).
node((21,13)).
node((21,14)).
node((21,15)).
node((21,16)).
node((21,17)).
node((21,18)).
node((21,19)).
node((2,12)).
node((21,2)).
node((2,13)).
node((21,3)).
node((2,14)).
node((21,4)).
node((2,15)).
node((21,5)).
node((2,16)).
node((21,6)).
node((2,17)).
node((21,7)).
node((2,18)).
node((21,8)).
node((2,19)).
node((21,9)).
node((2,2)).
node((22,0)).
node((22,1)).
node((22,10)).
node((22,11)).
node((22,12)).
node((22,13)).
node((22,14)).
node((22,15)).
node((22,16)).
node((22,17)).
node((22,18)).
node((22,19)).
node((22,2)).
node((22,3)).
node((22,4)).
node((22,5)).
node((22,6)).
node((22,7)).
node((22,8)).
node((22,9)).
node((2,3)).
node((23,0)).
node((23,1)).
node((23,10)).
node((23,11)).
node((23,12)).
node((23,13)).
node((23,14)).
node((23,15)).
node((23,16)).
node((23,17)).
node((23,18)).
node((23,19)).
node((23,2)).
node((23,3)).
node((23,4)).
node((23,5)).
node((23,6)).
node((23,7)).
node((23,8)).
node((23,9)).
node((2,4)).
node((24,0)).
node((24,1)).
node((24,10)).
node((24,11)).
node((24,12)).
node((24,13)).
node((24,14)).
node((24,15)).
node((24,16)).
node((24,17)).
node((24,18)).
node((24,19)).
node((24,2)).
node((24,3)).
node((24,4)).
node((24,5)).
node((24,6)).
node((24,7)).
node((24,8)).
node((24,9)).
node((2,5)).
node((25,0)).
node((25,1)).
node((25,10)).
node((25,11)).
node((25,12)).
node((25,13)).
node((25,14)).
node((25,15)).
node((25,16)).
node((25,17)).
node((25,18)).
node((25,19)).
node((25,2)).
node((25,3)).
node((25,4)).
node((25,5)).
node((25,6)).
node((25,7)).
node((25,8)).
node((25,9)).
node((2,6)).
node((26,0)).
node((26,1)).
node((26,10)).
node((26,11)).
node((26,12)).
node((26,13)).
node((26,14)).
node((26,15)).
node((26,16)).
node((26,17)).
node((26,18)).
node((26,19)).
node((26,2)).
node((26,3)).
node((26,4)).
node((26,5)).
node((26,6)).
node((26,7)).
node((26,8)).
node((26,9)).
node((2,7)).
node((27,0)).
node((27,1)).
node((27,10)).
node((27,11)).
node((27,12)).
node((27,13)).
node((27,14)).
node((27,15)).
node((27,16)).
node((27,17)).
node((27,18)).
node((27,19)).
node((27,2)).
node((27,3)).
node((27,4)).
node((27,5)).
node((27,6)).
node((27,7)).
node((27,8)).
node((27,9)).
node((2,8)).
node((28,0)).
node((28,1)).
node((28,10)).
node((28,11)).
node((28,12)).
node((28,13)).
node((28,14)).
node((28,15)).
node((28,16)).
node((28,17)).
node((28,18)).
node((28,19)).
node((28,2)).
node((28,3)).
node((28,4)).
node((28,5)).
node((28,6)).
node((28,7)).
node((28,8)).
node((28,9)).
node((2,9)).
node((29,0)).
node((29,1)).
node((29,10)).
node((29,11)).
node((29,12)).
node((29,13)).
node((29,14)).
node((29,15)).
node((29,16)).
node((29,17)).
node((29,18)).
node((29,19)).
node((29,2)).
node((29,3)).
node((29,4)).
node((29,5)).
node((29,6)).
node((29,7)).
node((29,8)).
node((29,9)).
node((3,0)).
node((3,1)).
node((3,10)).
node((3,11)).
node((3,12)).
node((3,13)).
node((3,14)).
node((3,15)).
node((3,16)).
node((3,17)).
node((3,18)).
node((3,19)).
node((3,2)).
node((3,3)).
node((3,4)).
node((3,5)).
node((3,6)).
node((3,7)).
node((3,8)).
node((3,9)).
node((4,0)).
node((4,1)).
node((4,10)).
node((4,11)).
node((4,12)).
node((4,13)).
node((4,14)).
node((4,15)).
node((4,16)).
node((4,17)).
node((4,18)).
node((4,19)).
node((4,2)).
node((4,3)).
node((4,4)).
node((4,5)).
node((4,6)).
node((4,7)).
node((4,8)).
node((4,9)).
node((5,0)).
node((5,1)).
node((5,10)).
node((5,11)).
node((5,12)).
node((5,13)).
node((5,14)).
node((5,15)).
node((5,16)).
node((5,17)).
node((5,18)).
node((5,19)).
node((5,2)).
node((5,3)).
node((5,4)).
node((5,5)).
node((5,6)).
node((5,7)).
node((5,8)).
node((5,9)).
node((6,0)).
node((6,1)).
node((6,10)).
node((6,11)).
node((6,12)).
node((6,13)).
node((6,14)).
node((6,15)).
node((6,16)).
node((6,17)).
node((6,18)).
node((6,19)).
node((6,2)).
node((6,3)).
node((6,4)).
node((6,5)).
node((6,6)).
node((6,7)).
node((6,8)).
node((6,9)).
node((7,0)).
node((7,1)).
node((7,10)).
node((7,11)).
node((7,12)).
node((7,13)).
node((7,14)).
node((7,15)).
node((7,16)).
node((7,17)).
node((7,18)).
node((7,19)).
node((7,2)).
node((7,3)).
node((7,4)).
node((7,5)).
node((7,6)).
node((7,7)).
node((7,8)).
node((7,9)).
node((8,0)).
node((8,1)).
node((8,10)).
node((8,11)).
node((8,12)).
node((8,13)).
node((8,14)).
node((8,15)).
node((8,16)).
node((8,17)).
node((8,18)).
node((8,19)).
node((8,2)).
node((8,3)).
node((8,4)).
node((8,5)).
node((8,6)).
node((8,7)).
node((8,8)).
node((8,9)).
node((9,0)).
node((9,1)).
node((9,10)).
node((9,11)).
node((9,12)).
node((9,13)).
node((9,14)).
node((9,15)).
node((9,16)).
node((9,17)).
node((9,18)).
node((9,19)).
node((9,2)).
node((9,3)).
node((9,4)).
node((9,5)).
node((9,6)).
node((9,7)).
node((9,8)).
node((9,9)).
object(track(0),track).
object(track(1025),track).
object(track(1097),track).
object(track(16386),track).
object(track(17411),track).
object(track(2064),track).
object(track(3089),track).
object(track(32800),track).
object(track(32872),track).
object(track(33825),track).
object(track(34864),track).
object(track(37408),track).
object(track(38505),track).
object(track(4608),track).
object(track(49186),track).
object(track(52275),track).
object(track(5633),track).
object(track(72),track).
object(train(0),train).
object(train(1),train).
object(train(2),train).
object(train(3),train).

position((0,0),cell,track(0)).
position((0,10),cell,track(0)).
position((0,11),cell,track(0)).
position((0,12),cell,track(0)).
position((0,13),cell,track(0)).
position((0,14),cell,track(0)).
position((0,15),cell,track(0)).
position((0,16),cell,track(0)).
position((0,17),cell,track(0)).
position((0,18),cell,track(0)).
position((0,19),cell,track(0)).
position((0,1),cell,track(0)).
position((0,2),cell,track(0)).
position((0,3),cell,track(0)).
position((0,4),cell,track(0)).
position((0,5),cell,track(0)).
position((0,6),cell,track(0)).
position((0,7),cell,track(0)).
position((0,8),cell,track(0)).
position((0,9),cell,track(0)).
position((10,0),cell,track(0)).
position((10,10),cell,track(0)).
position((10,11),cell,track(0)).
position((10,12),cell,track(0)).
position((10,13),cell,track(0)).
position((10,14),cell,track(0)).
position((10,15),cell,track(0)).
position((10,16),cell,track(0)).
position((10,17),cell,track(0)).
position((10,18),cell,track(0)).
position((10,19),cell,track(0)).
position((10,1),cell,track(0)).
position((10,2),cell,track(0)).
position((10,3),cell,track(32800)).
position((10,4),cell,track(0)).
position((10,5),cell,track(0)).
position((10,6),cell,track(0)).
position((10,7),cell,track(0)).
position((10,8),cell,track(49186)).
position((10,9),cell,track(34864)).
position((1,0),cell,track(0)).
position((1,10),cell,track(0)).
position((11,0),cell,track(0)).
position((11,10),cell,track(0)).
position((11,11),cell,track(0)).
position((11,12),cell,track(0)).
position((11,13),cell,track(0)).
position((11,14),cell,track(0)).
position((11,15),cell,track(0)).
position((11,16),cell,track(0)).
position((11,17),cell,track(0)).
position((11,18),cell,track(0)).
position((11,19),cell,track(0)).
position((1,11),cell,track(0)).
position((11,1),cell,track(0)).
position((1,12),cell,track(0)).
position((11,2),cell,track(0)).
position((1,13),cell,track(0)).
position((11,3),cell,track(32800)).
position((1,14),cell,track(0)).
position((11,4),cell,track(0)).
position((1,15),cell,track(0)).
position((11,5),cell,track(0)).
position((1,16),cell,track(0)).
position((11,6),cell,track(0)).
position((1,17),cell,track(0)).
position((11,7),cell,track(0)).
position((1,18),cell,track(0)).
position((11,8),cell,track(32800)).
position((1,19),cell,track(0)).
position((11,9),cell,track(32800)).
position((1,1),cell,track(0)).
position((12,0),cell,track(0)).
position((12,10),cell,track(4608)).
position((12,11),cell,track(0)).
position((12,12),cell,track(0)).
position((12,13),cell,track(0)).
position((12,14),cell,track(0)).
position((12,15),cell,track(0)).
position((12,16),cell,track(0)).
position((12,17),cell,track(0)).
position((12,18),cell,track(0)).
position((12,19),cell,track(0)).
position((12,1),cell,track(0)).
position((12,2),cell,track(0)).
position((12,3),cell,track(32872)).
position((12,4),cell,track(1025)).
position((12,5),cell,track(1025)).
position((12,6),cell,track(4608)).
position((12,7),cell,track(16386)).
position((12,8),cell,track(38505)).
position((12,9),cell,track(33825)).
position((1,2),cell,track(0)).
position((13,0),cell,track(0)).
position((13,10),cell,track(37408)).
position((13,11),cell,track(0)).
position((13,12),cell,track(0)).
position((13,13),cell,track(0)).
position((13,14),cell,track(0)).
position((13,15),cell,track(0)).
position((13,16),cell,track(0)).
position((13,17),cell,track(0)).
position((13,18),cell,track(0)).
position((13,19),cell,track(0)).
position((13,1),cell,track(0)).
position((13,2),cell,track(0)).
position((13,3),cell,track(72)).
position((13,4),cell,track(1025)).
position((13,5),cell,track(17411)).
position((13,6),cell,track(52275)).
position((13,7),cell,track(3089)).
position((13,8),cell,track(3089)).
position((13,9),cell,track(3089)).
position((1,3),cell,track(0)).
position((14,0),cell,track(0)).
position((14,10),cell,track(32800)).
position((14,11),cell,track(0)).
position((14,12),cell,track(0)).
position((14,13),cell,track(0)).
position((14,14),cell,track(0)).
position((14,15),cell,track(0)).
position((14,16),cell,track(0)).
position((14,17),cell,track(0)).
position((14,18),cell,track(0)).
position((14,19),cell,track(0)).
position((14,1),cell,track(0)).
position((14,2),cell,track(0)).
position((14,3),cell,track(0)).
position((14,4),cell,track(0)).
position((14,5),cell,track(32800)).
position((14,6),cell,track(32800)).
position((14,7),cell,track(0)).
position((14,8),cell,track(0)).
position((14,9),cell,track(0)).
position((1,4),cell,track(0)).
position((15,0),cell,track(0)).
position((15,10),cell,track(32800)).
position((15,11),cell,track(0)).
position((15,12),cell,track(0)).
position((15,13),cell,track(0)).
position((15,14),cell,track(0)).
position((15,15),cell,track(0)).
position((15,16),cell,track(0)).
position((15,17),cell,track(0)).
position((15,18),cell,track(0)).
position((15,19),cell,track(0)).
position((15,1),cell,track(0)).
position((15,2),cell,track(0)).
position((15,3),cell,track(0)).
position((15,4),cell,track(0)).
position((15,5),cell,track(32872)).
position((15,6),cell,track(37408)).
position((15,7),cell,track(0)).
position((15,8),cell,track(0)).
position((15,9),cell,track(0)).
position((1,5),cell,track(0)).
position((16,0),cell,track(0)).
position((16,10),cell,track(32800)).
position((16,11),cell,track(0)).
position((16,12),cell,track(0)).
position((16,13),cell,track(0)).
position((16,14),cell,track(0)).
position((16,15),cell,track(0)).
position((16,16),cell,track(0)).
position((16,17),cell,track(0)).
position((16,18),cell,track(0)).
position((16,19),cell,track(0)).
position((16,1),cell,track(0)).
position((16,2),cell,track(0)).
position((16,3),cell,track(0)).
position((16,4),cell,track(0)).
position((16,5),cell,track(49186)).
position((16,6),cell,track(34864)).
position((16,7),cell,track(0)).
position((16,8),cell,track(0)).
position((16,9),cell,track(0)).
position((1,6),cell,track(0)).
position((17,0),cell,track(0)).
position((17,10),cell,track(32800)).
position((17,11),cell,track(0)).
position((17,12),cell,track(0)).
position((17,13),cell,track(0)).
position((17,14),cell,track(0)).
position((17,15),cell,track(0)).
position((17,16),cell,track(0)).
position((17,17),cell,track(0)).
position((17,18),cell,track(0)).
position((17,19),cell,track(0)).
position((17,1),cell,track(0)).
position((17,2),cell,track(0)).
position((17,3),cell,track(0)).
position((17,4),cell,track(16386)).
position((17,5),cell,track(34864)).
position((17,6),cell,track(32872)).
position((17,7),cell,track(4608)).
position((17,8),cell,track(0)).
position((17,9),cell,track(0)).
position((1,7),cell,track(0)).
position((18,0),cell,track(0)).
position((18,10),cell,track(32800)).
position((18,11),cell,track(0)).
position((18,12),cell,track(0)).
position((18,13),cell,track(0)).
position((18,14),cell,track(0)).
position((18,15),cell,track(0)).
position((18,16),cell,track(0)).
position((18,17),cell,track(0)).
position((18,18),cell,track(0)).
position((18,19),cell,track(0)).
position((18,1),cell,track(0)).
position((18,2),cell,track(0)).
position((18,3),cell,track(0)).
position((18,4),cell,track(32800)).
position((18,5),cell,track(32800)).
position((18,5),end,train(0)).
position((18,5),end,train(3)).
position((18,6),cell,track(32800)).
position((18,6),start,train(1)).
position((18,6),start,train(2)).
position((18,7),cell,track(32800)).
position((18,8),cell,track(0)).
position((18,9),cell,track(0)).
position((1,8),cell,track(0)).
position((19,0),cell,track(0)).
position((19,10),cell,track(32800)).
position((19,11),cell,track(0)).
position((19,12),cell,track(0)).
position((19,13),cell,track(0)).
position((19,14),cell,track(0)).
position((19,15),cell,track(0)).
position((19,16),cell,track(0)).
position((19,17),cell,track(0)).
position((19,18),cell,track(0)).
position((19,19),cell,track(0)).
position((19,1),cell,track(0)).
position((19,2),cell,track(0)).
position((19,3),cell,track(0)).
position((19,4),cell,track(72)).
position((19,5),cell,track(37408)).
position((19,6),cell,track(49186)).
position((19,7),cell,track(2064)).
position((19,8),cell,track(0)).
position((19,9),cell,track(0)).
position((1,9),cell,track(0)).
position((20,0),cell,track(0)).
position((20,10),cell,track(32800)).
position((20,11),cell,track(0)).
position((20,12),cell,track(0)).
position((20,13),cell,track(0)).
position((20,14),cell,track(0)).
position((20,15),cell,track(0)).
position((20,16),cell,track(0)).
position((20,17),cell,track(0)).
position((20,18),cell,track(0)).
position((20,19),cell,track(0)).
position((20,1),cell,track(0)).
position((20,2),cell,track(0)).
position((20,3),cell,track(0)).
position((20,4),cell,track(0)).
position((20,5),cell,track(32872)).
position((20,6),cell,track(37408)).
position((20,7),cell,track(0)).
position((20,8),cell,track(0)).
position((20,9),cell,track(0)).
position((2,0),cell,track(0)).
position((2,10),cell,track(0)).
position((21,0),cell,track(0)).
position((21,10),cell,track(32800)).
position((21,11),cell,track(0)).
position((21,12),cell,track(0)).
position((21,13),cell,track(0)).
position((21,14),cell,track(0)).
position((21,15),cell,track(0)).
position((21,16),cell,track(0)).
position((21,17),cell,track(0)).
position((21,18),cell,track(0)).
position((21,19),cell,track(0)).
position((2,11),cell,track(0)).
position((21,1),cell,track(0)).
position((2,12),cell,track(0)).
position((21,2),cell,track(0)).
position((2,13),cell,track(0)).
position((21,3),cell,track(0)).
position((2,14),cell,track(0)).
position((21,4),cell,track(0)).
position((2,15),cell,track(0)).
position((21,5),cell,track(49186)).
position((2,16),cell,track(0)).
position((21,6),cell,track(34864)).
position((2,17),cell,track(0)).
position((21,7),cell,track(0)).
position((2,18),cell,track(0)).
position((21,8),cell,track(0)).
position((2,19),cell,track(0)).
position((21,9),cell,track(0)).
position((2,1),cell,track(0)).
position((22,0),cell,track(0)).
position((22,10),cell,track(32800)).
position((22,11),cell,track(0)).
position((22,12),cell,track(0)).
position((22,13),cell,track(0)).
position((22,14),cell,track(0)).
position((22,15),cell,track(0)).
position((22,16),cell,track(0)).
position((22,17),cell,track(0)).
position((22,18),cell,track(0)).
position((22,19),cell,track(0)).
position((22,1),cell,track(0)).
position((22,2),cell,track(0)).
position((22,3),cell,track(0)).
position((22,4),cell,track(0)).
position((22,5),cell,track(32800)).
position((22,6),cell,track(32800)).
position((22,7),cell,track(0)).
position((22,8),cell,track(0)).
position((22,9),cell,track(0)).
position((2,2),cell,track(0)).
position((23,0),cell,track(0)).
position((23,10),cell,track(2064)).
position((23,11),cell,track(0)).
position((23,12),cell,track(0)).
position((23,13),cell,track(0)).
position((23,14),cell,track(0)).
position((23,15),cell,track(0)).
position((23,16),cell,track(0)).
position((23,17),cell,track(0)).
position((23,18),cell,track(0)).
position((23,19),cell,track(0)).
position((23,1),cell,track(0)).
position((23,2),cell,track(0)).
position((23,3),cell,track(0)).
position((23,4),cell,track(0)).
position((23,5),cell,track(72)).
position((23,6),cell,track(1097)).
position((23,7),cell,track(1025)).
position((23,8),cell,track(1025)).
position((23,9),cell,track(1025)).
position((2,3),cell,track(16386)).
position((24,0),cell,track(0)).
position((24,10),cell,track(0)).
position((24,11),cell,track(0)).
position((24,12),cell,track(0)).
position((24,13),cell,track(0)).
position((24,14),cell,track(0)).
position((24,15),cell,track(0)).
position((24,16),cell,track(0)).
position((24,17),cell,track(0)).
position((24,18),cell,track(0)).
position((24,19),cell,track(0)).
position((24,1),cell,track(0)).
position((24,2),cell,track(0)).
position((24,3),cell,track(0)).
position((24,4),cell,track(0)).
position((24,5),cell,track(0)).
position((24,6),cell,track(0)).
position((24,7),cell,track(0)).
position((24,8),cell,track(0)).
position((24,9),cell,track(0)).
position((2,4),cell,track(1025)).
position((25,0),cell,track(0)).
position((25,10),cell,track(0)).
position((25,11),cell,track(0)).
position((25,12),cell,track(0)).
position((25,13),cell,track(0)).
position((25,14),cell,track(0)).
position((25,15),cell,track(0)).
position((25,16),cell,track(0)).
position((25,17),cell,track(0)).
position((25,18),cell,track(0)).
position((25,19),cell,track(0)).
position((25,1),cell,track(0)).
position((25,2),cell,track(0)).
position((25,3),cell,track(0)).
position((25,4),cell,track(0)).
position((25,5),cell,track(0)).
position((25,6),cell,track(0)).
position((25,7),cell,track(0)).
position((25,8),cell,track(0)).
position((25,9),cell,track(0)).
position((2,5),cell,track(1025)).
position((26,0),cell,track(0)).
position((26,10),cell,track(0)).
position((26,11),cell,track(0)).
position((26,12),cell,track(0)).
position((26,13),cell,track(0)).
position((26,14),cell,track(0)).
position((26,15),cell,track(0)).
position((26,16),cell,track(0)).
position((26,17),cell,track(0)).
position((26,18),cell,track(0)).
position((26,19),cell,track(0)).
position((26,1),cell,track(0)).
position((26,2),cell,track(0)).
position((26,3),cell,track(0)).
position((26,4),cell,track(0)).
position((26,5),cell,track(0)).
position((26,6),cell,track(0)).
position((26,7),cell,track(0)).
position((26,8),cell,track(0)).
position((26,9),cell,track(0)).
position((2,6),cell,track(1025)).
position((27,0),cell,track(0)).
position((27,10),cell,track(0)).
position((27,11),cell,track(0)).
position((27,12),cell,track(0)).
position((27,13),cell,track(0)).
position((27,14),cell,track(0)).
position((27,15),cell,track(0)).
position((27,16),cell,track(0)).
position((27,17),cell,track(0)).
position((27,18),cell,track(0)).
position((27,19),cell,track(0)).
position((27,1),cell,track(0)).
position((27,2),cell,track(0)).
position((27,3),cell,track(0)).
position((27,4),cell,track(0)).
position((27,5),cell,track(0)).
position((27,6),cell,track(0)).
position((27,7),cell,track(0)).
position((27,8),cell,track(0)).
position((27,9),cell,track(0)).
position((2,7),cell,track(1025)).
position((28,0),cell,track(0)).
position((28,10),cell,track(0)).
position((28,11),cell,track(0)).
position((28,12),cell,track(0)).
position((28,13),cell,track(0)).
position((28,14),cell,track(0)).
position((28,15),cell,track(0)).
position((28,16),cell,track(0)).
position((28,17),cell,track(0)).
position((28,18),cell,track(0)).
position((28,19),cell,track(0)).
position((28,1),cell,track(0)).
position((28,2),cell,track(0)).
position((28,3),cell,track(0)).
position((28,4),cell,track(0)).
position((28,5),cell,track(0)).
position((28,6),cell,track(0)).
position((28,7),cell,track(0)).
position((28,8),cell,track(0)).
position((28,9),cell,track(0)).
position((2,8),cell,track(5633)).
position((29,0),cell,track(0)).
position((29,10),cell,track(0)).
position((29,11),cell,track(0)).
position((29,12),cell,track(0)).
position((29,13),cell,track(0)).
position((29,14),cell,track(0)).
position((29,15),cell,track(0)).
position((29,16),cell,track(0)).
position((29,17),cell,track(0)).
position((29,18),cell,track(0)).
position((29,19),cell,track(0)).
position((29,1),cell,track(0)).
position((29,2),cell,track(0)).
position((29,3),cell,track(0)).
position((29,4),cell,track(0)).
position((29,5),cell,track(0)).
position((29,6),cell,track(0)).
position((29,7),cell,track(0)).
position((29,8),cell,track(0)).
position((29,9),cell,track(0)).
position((2,9),cell,track(4608)).
position((3,0),cell,track(0)).
position((3,10),cell,track(0)).
position((3,11),cell,track(0)).
position((3,12),cell,track(0)).
position((3,13),cell,track(0)).
position((3,14),cell,track(0)).
position((3,15),cell,track(0)).
position((3,16),cell,track(0)).
position((3,17),cell,track(0)).
position((3,18),cell,track(0)).
position((3,19),cell,track(0)).
position((3,1),cell,track(0)).
position((3,2),cell,track(0)).
position((3,3),cell,track(32800)).
position((3,4),cell,track(0)).
position((3,5),cell,track(0)).
position((3,6),cell,track(0)).
position((3,7),cell,track(0)).
position((3,8),cell,track(32800)).
position((3,9),cell,track(32800)).
position((4,0),cell,track(0)).
position((4,10),cell,track(0)).
position((4,11),cell,track(0)).
position((4,12),cell,track(0)).
position((4,13),cell,track(0)).
position((4,14),cell,track(0)).
position((4,15),cell,track(0)).
position((4,16),cell,track(0)).
position((4,17),cell,track(0)).
position((4,18),cell,track(0)).
position((4,19),cell,track(0)).
position((4,1),cell,track(0)).
position((4,2),cell,track(0)).
position((4,3),cell,track(32800)).
position((4,4),cell,track(0)).
position((4,5),cell,track(0)).
position((4,6),cell,track(0)).
position((4,7),cell,track(0)).
position((4,8),cell,track(32872)).
position((4,9),cell,track(37408)).
position((5,0),cell,track(0)).
position((5,10),cell,track(0)).
position((5,11),cell,track(0)).
position((5,12),cell,track(0)).
position((5,13),cell,track(0)).
position((5,14),cell,track(0)).
position((5,15),cell,track(0)).
position((5,16),cell,track(0)).
position((5,17),cell,track(0)).
position((5,18),cell,track(0)).
position((5,19),cell,track(0)).
position((5,1),cell,track(0)).
position((5,2),cell,track(0)).
position((5,3),cell,track(32800)).
position((5,4),cell,track(0)).
position((5,5),cell,track(0)).
position((5,6),cell,track(0)).
position((5,7),cell,track(0)).
position((5,8),cell,track(49186)).
position((5,9),cell,track(34864)).
position((6,0),cell,track(0)).
position((6,10),cell,track(4608)).
position((6,11),cell,track(0)).
position((6,12),cell,track(0)).
position((6,13),cell,track(0)).
position((6,14),cell,track(0)).
position((6,15),cell,track(0)).
position((6,16),cell,track(0)).
position((6,17),cell,track(0)).
position((6,18),cell,track(0)).
position((6,19),cell,track(0)).
position((6,1),cell,track(0)).
position((6,2),cell,track(0)).
position((6,3),cell,track(32800)).
position((6,4),cell,track(0)).
position((6,5),cell,track(0)).
position((6,6),cell,track(0)).
position((6,7),cell,track(16386)).
position((6,8),cell,track(34864)).
position((6,9),cell,track(32872)).
position((7,0),cell,track(0)).
position((7,10),cell,track(32800)).
position((7,10),end,train(1)).
position((7,10),end,train(2)).
position((7,11),cell,track(0)).
position((7,12),cell,track(0)).
position((7,13),cell,track(0)).
position((7,14),cell,track(0)).
position((7,15),cell,track(0)).
position((7,16),cell,track(0)).
position((7,17),cell,track(0)).
position((7,18),cell,track(0)).
position((7,19),cell,track(0)).
position((7,1),cell,track(0)).
position((7,2),cell,track(0)).
position((7,3),cell,track(32800)).
position((7,4),cell,track(0)).
position((7,5),cell,track(0)).
position((7,6),cell,track(0)).
position((7,7),cell,track(32800)).
position((7,7),start,train(3)).
position((7,8),cell,track(32800)).
position((7,9),cell,track(32800)).
position((7,9),start,train(0)).
position((8,0),cell,track(0)).
position((8,10),cell,track(2064)).
position((8,11),cell,track(0)).
position((8,12),cell,track(0)).
position((8,13),cell,track(0)).
position((8,14),cell,track(0)).
position((8,15),cell,track(0)).
position((8,16),cell,track(0)).
position((8,17),cell,track(0)).
position((8,18),cell,track(0)).
position((8,19),cell,track(0)).
position((8,1),cell,track(0)).
position((8,2),cell,track(0)).
position((8,3),cell,track(32800)).
position((8,4),cell,track(0)).
position((8,5),cell,track(0)).
position((8,6),cell,track(0)).
position((8,7),cell,track(72)).
position((8,8),cell,track(37408)).
position((8,9),cell,track(49186)).
position((9,0),cell,track(0)).
position((9,10),cell,track(0)).
position((9,11),cell,track(0)).
position((9,12),cell,track(0)).
position((9,13),cell,track(0)).
position((9,14),cell,track(0)).
position((9,15),cell,track(0)).
position((9,16),cell,track(0)).
position((9,17),cell,track(0)).
position((9,18),cell,track(0)).
position((9,19),cell,track(0)).
position((9,1),cell,track(0)).
position((9,2),cell,track(0)).
position((9,3),cell,track(32800)).
position((9,4),cell,track(0)).
position((9,5),cell,track(0)).
position((9,6),cell,track(0)).
position((9,7),cell,track(0)).
position((9,8),cell,track(32872)).
position((9,9),cell,track(37408)).
property(train(0),arr,95).
property(train(0),dep,0).
property(train(0),direction,s).
property(train(0),speed,4).
property(train(1),arr,97).
property(train(1),dep,2).
property(train(1),direction,n).
property(train(1),speed,4).
property(train(2),arr,100).
property(train(2),dep,5).
property(train(2),direction,n).
property(train(2),speed,4).
property(train(3),arr,91).
property(train(3),dep,38).
property(train(3),direction,n).
property(train(3),speed,1).
