object(track(0),track).
object(track(1025),track).
object(track(1097),track).
object(track(16386),track).
object(track(17411),track).
object(track(2064),track).
object(track(3089),track).
object(track(32800),track).
object(track(32872),track).
object(track(33825),track).
object(track(33897),track).
object(track(34864),track).
object(track(37408),track).
object(track(38505),track).
object(track(4608),track).
object(track(49186),track).
object(track(52275),track).
object(track(5633),track).
object(track(72),track).
object(train(0),train).

property(train(0),arr,437).
property(train(0),dep,91).
property(train(0),direction,e).
property(train(0),speed,4).

% positions

position((0,0),cell,track(0)).
position((0,10),cell,track(0)).
position((0,11),cell,track(0)).
position((0,12),cell,track(0)).
position((0,13),cell,track(0)).
position((0,14),cell,track(0)).
position((0,15),cell,track(0)).
position((0,16),cell,track(0)).
position((0,17),cell,track(0)).
position((0,18),cell,track(0)).
position((0,19),cell,track(0)).
position((0,1),cell,track(0)).
position((0,20),cell,track(0)).
position((0,21),cell,track(0)).
position((0,22),cell,track(0)).
position((0,23),cell,track(0)).
position((0,24),cell,track(0)).
position((0,25),cell,track(0)).
position((0,26),cell,track(0)).
position((0,27),cell,track(0)).
position((0,28),cell,track(0)).
position((0,29),cell,track(0)).
position((0,2),cell,track(0)).
position((0,30),cell,track(0)).
position((0,31),cell,track(0)).
position((0,32),cell,track(0)).
position((0,33),cell,track(0)).
position((0,34),cell,track(0)).
position((0,35),cell,track(0)).
position((0,36),cell,track(0)).
position((0,37),cell,track(0)).
position((0,38),cell,track(0)).
position((0,39),cell,track(0)).
position((0,3),cell,track(0)).
position((0,40),cell,track(0)).
position((0,41),cell,track(0)).
position((0,42),cell,track(0)).
position((0,43),cell,track(0)).
position((0,44),cell,track(0)).
position((0,45),cell,track(0)).
position((0,46),cell,track(0)).
position((0,47),cell,track(0)).
position((0,48),cell,track(0)).
position((0,49),cell,track(0)).
position((0,4),cell,track(0)).
position((0,50),cell,track(0)).
position((0,51),cell,track(0)).
position((0,52),cell,track(0)).
position((0,53),cell,track(0)).
position((0,54),cell,track(0)).
position((0,55),cell,track(0)).
position((0,56),cell,track(0)).
position((0,57),cell,track(0)).
position((0,58),cell,track(0)).
position((0,59),cell,track(0)).
position((0,5),cell,track(0)).
position((0,60),cell,track(0)).
position((0,61),cell,track(0)).
position((0,62),cell,track(0)).
position((0,63),cell,track(0)).
position((0,64),cell,track(0)).
position((0,65),cell,track(0)).
position((0,66),cell,track(0)).
position((0,67),cell,track(0)).
position((0,68),cell,track(0)).
position((0,69),cell,track(0)).
position((0,6),cell,track(0)).
position((0,70),cell,track(0)).
position((0,71),cell,track(0)).
position((0,72),cell,track(0)).
position((0,73),cell,track(0)).
position((0,74),cell,track(0)).
position((0,75),cell,track(0)).
position((0,76),cell,track(0)).
position((0,77),cell,track(0)).
position((0,78),cell,track(0)).
position((0,79),cell,track(0)).
position((0,7),cell,track(0)).
position((0,8),cell,track(0)).
position((0,9),cell,track(0)).
position((10,0),cell,track(0)).
position((10,10),cell,track(0)).
position((10,11),cell,track(0)).
position((10,12),cell,track(0)).
position((10,13),cell,track(0)).
position((10,14),cell,track(0)).
position((10,15),cell,track(0)).
position((10,16),cell,track(0)).
position((10,17),cell,track(0)).
position((10,18),cell,track(0)).
position((10,19),cell,track(0)).
position((10,1),cell,track(0)).
position((10,20),cell,track(0)).
position((10,21),cell,track(0)).
position((10,22),cell,track(0)).
position((10,23),cell,track(0)).
position((10,24),cell,track(0)).
position((10,25),cell,track(0)).
position((10,26),cell,track(0)).
position((10,27),cell,track(0)).
position((10,28),cell,track(0)).
position((10,29),cell,track(0)).
position((10,2),cell,track(0)).
position((10,30),cell,track(0)).
position((10,31),cell,track(0)).
position((10,32),cell,track(0)).
position((10,33),cell,track(0)).
position((10,34),cell,track(0)).
position((10,35),cell,track(0)).
position((10,36),cell,track(0)).
position((10,37),cell,track(0)).
position((10,38),cell,track(0)).
position((10,39),cell,track(0)).
position((10,3),cell,track(0)).
position((10,40),cell,track(0)).
position((10,41),cell,track(0)).
position((10,42),cell,track(0)).
position((10,43),cell,track(0)).
position((10,44),cell,track(0)).
position((10,45),cell,track(0)).
position((10,46),cell,track(0)).
position((10,47),cell,track(0)).
position((10,48),cell,track(0)).
position((10,49),cell,track(0)).
position((10,4),cell,track(0)).
position((10,50),cell,track(0)).
position((10,51),cell,track(0)).
position((10,52),cell,track(0)).
position((10,53),cell,track(0)).
position((10,54),cell,track(0)).
position((10,55),cell,track(0)).
position((10,56),cell,track(0)).
position((10,57),cell,track(0)).
position((10,58),cell,track(0)).
position((10,59),cell,track(0)).
position((10,5),cell,track(0)).
position((10,60),cell,track(0)).
position((10,61),cell,track(0)).
position((10,62),cell,track(0)).
position((10,63),cell,track(0)).
position((10,64),cell,track(0)).
position((10,65),cell,track(0)).
position((10,66),cell,track(0)).
position((10,67),cell,track(0)).
position((10,68),cell,track(0)).
position((10,69),cell,track(0)).
position((10,6),cell,track(0)).
position((10,70),cell,track(0)).
position((10,71),cell,track(0)).
position((10,72),cell,track(0)).
position((10,73),cell,track(0)).
position((10,74),cell,track(0)).
position((10,75),cell,track(0)).
position((10,76),cell,track(0)).
position((10,77),cell,track(0)).
position((10,78),cell,track(0)).
position((10,79),cell,track(0)).
position((10,7),cell,track(0)).
position((10,8),cell,track(0)).
position((10,9),cell,track(0)).
position((1,0),cell,track(0)).
position((1,10),cell,track(0)).
position((11,0),cell,track(0)).
position((11,10),cell,track(0)).
position((11,11),cell,track(0)).
position((11,12),cell,track(0)).
position((11,13),cell,track(0)).
position((11,14),cell,track(0)).
position((11,15),cell,track(0)).
position((11,16),cell,track(0)).
position((11,17),cell,track(0)).
position((11,18),cell,track(0)).
position((11,19),cell,track(0)).
position((1,11),cell,track(0)).
position((11,1),cell,track(0)).
position((11,20),cell,track(0)).
position((11,21),cell,track(0)).
position((11,22),cell,track(0)).
position((11,23),cell,track(0)).
position((11,24),cell,track(0)).
position((11,25),cell,track(0)).
position((11,26),cell,track(0)).
position((11,27),cell,track(0)).
position((11,28),cell,track(0)).
position((11,29),cell,track(0)).
position((1,12),cell,track(0)).
position((11,2),cell,track(0)).
position((11,30),cell,track(0)).
position((11,31),cell,track(0)).
position((11,32),cell,track(0)).
position((11,33),cell,track(0)).
position((11,34),cell,track(0)).
position((11,35),cell,track(0)).
position((11,36),cell,track(0)).
position((11,37),cell,track(0)).
position((11,38),cell,track(0)).
position((11,39),cell,track(0)).
position((1,13),cell,track(0)).
position((11,3),cell,track(0)).
position((11,40),cell,track(0)).
position((11,41),cell,track(0)).
position((11,42),cell,track(0)).
position((11,43),cell,track(0)).
position((11,44),cell,track(0)).
position((11,45),cell,track(0)).
position((11,46),cell,track(0)).
position((11,47),cell,track(0)).
position((11,48),cell,track(0)).
position((11,49),cell,track(0)).
position((1,14),cell,track(0)).
position((11,4),cell,track(0)).
position((11,50),cell,track(0)).
position((11,51),cell,track(0)).
position((11,52),cell,track(0)).
position((11,53),cell,track(0)).
position((11,54),cell,track(0)).
position((11,55),cell,track(0)).
position((11,56),cell,track(0)).
position((11,57),cell,track(0)).
position((11,58),cell,track(0)).
position((11,59),cell,track(0)).
position((1,15),cell,track(0)).
position((11,5),cell,track(0)).
position((11,60),cell,track(0)).
position((11,61),cell,track(0)).
position((11,62),cell,track(0)).
position((11,63),cell,track(0)).
position((11,64),cell,track(0)).
position((11,65),cell,track(0)).
position((11,66),cell,track(0)).
position((11,67),cell,track(0)).
position((11,68),cell,track(0)).
position((11,69),cell,track(0)).
position((1,16),cell,track(0)).
position((11,6),cell,track(0)).
position((11,70),cell,track(0)).
position((11,71),cell,track(0)).
position((11,72),cell,track(0)).
position((11,73),cell,track(0)).
position((11,74),cell,track(0)).
position((11,75),cell,track(0)).
position((11,76),cell,track(0)).
position((11,77),cell,track(0)).
position((11,78),cell,track(0)).
position((11,79),cell,track(0)).
position((1,17),cell,track(0)).
position((11,7),cell,track(0)).
position((1,18),cell,track(0)).
position((11,8),cell,track(0)).
position((1,19),cell,track(0)).
position((11,9),cell,track(0)).
position((1,1),cell,track(0)).
position((1,20),cell,track(0)).
position((12,0),cell,track(0)).
position((12,10),cell,track(0)).
position((12,11),cell,track(0)).
position((12,12),cell,track(0)).
position((12,13),cell,track(0)).
position((12,14),cell,track(0)).
position((12,15),cell,track(0)).
position((12,16),cell,track(0)).
position((12,17),cell,track(0)).
position((12,18),cell,track(0)).
position((12,19),cell,track(0)).
position((1,21),cell,track(0)).
position((12,1),cell,track(0)).
position((12,20),cell,track(0)).
position((12,21),cell,track(0)).
position((12,22),cell,track(0)).
position((12,23),cell,track(0)).
position((12,24),cell,track(0)).
position((12,25),cell,track(0)).
position((12,26),cell,track(0)).
position((12,27),cell,track(0)).
position((12,28),cell,track(0)).
position((12,29),cell,track(0)).
position((1,22),cell,track(0)).
position((12,2),cell,track(0)).
position((12,30),cell,track(0)).
position((12,31),cell,track(0)).
position((12,32),cell,track(0)).
position((12,33),cell,track(0)).
position((12,34),cell,track(0)).
position((12,35),cell,track(0)).
position((12,36),cell,track(0)).
position((12,37),cell,track(0)).
position((12,38),cell,track(0)).
position((12,39),cell,track(0)).
position((1,23),cell,track(0)).
position((12,3),cell,track(0)).
position((12,40),cell,track(0)).
position((12,41),cell,track(0)).
position((12,42),cell,track(0)).
position((12,43),cell,track(0)).
position((12,44),cell,track(0)).
position((12,45),cell,track(0)).
position((12,46),cell,track(0)).
position((12,47),cell,track(0)).
position((12,48),cell,track(0)).
position((12,49),cell,track(0)).
position((1,24),cell,track(0)).
position((12,4),cell,track(0)).
position((12,50),cell,track(0)).
position((12,51),cell,track(0)).
position((12,52),cell,track(0)).
position((12,53),cell,track(0)).
position((12,54),cell,track(0)).
position((12,55),cell,track(0)).
position((12,56),cell,track(0)).
position((12,57),cell,track(0)).
position((12,58),cell,track(0)).
position((12,59),cell,track(0)).
position((1,25),cell,track(0)).
position((12,5),cell,track(0)).
position((12,60),cell,track(0)).
position((12,61),cell,track(0)).
position((12,62),cell,track(0)).
position((12,63),cell,track(0)).
position((12,64),cell,track(0)).
position((12,65),cell,track(0)).
position((12,66),cell,track(0)).
position((12,67),cell,track(0)).
position((12,68),cell,track(0)).
position((12,69),cell,track(0)).
position((1,26),cell,track(0)).
position((12,6),cell,track(0)).
position((12,70),cell,track(0)).
position((12,71),cell,track(0)).
position((12,72),cell,track(0)).
position((12,73),cell,track(0)).
position((12,74),cell,track(0)).
position((12,75),cell,track(0)).
position((12,76),cell,track(0)).
position((12,77),cell,track(0)).
position((12,78),cell,track(0)).
position((12,79),cell,track(0)).
position((1,27),cell,track(0)).
position((12,7),cell,track(0)).
position((1,28),cell,track(0)).
position((12,8),cell,track(0)).
position((1,29),cell,track(0)).
position((12,9),cell,track(0)).
position((1,2),cell,track(0)).
position((1,30),cell,track(0)).
position((13,0),cell,track(0)).
position((13,10),cell,track(0)).
position((13,11),cell,track(0)).
position((13,12),cell,track(0)).
position((13,13),cell,track(0)).
position((13,14),cell,track(0)).
position((13,15),cell,track(0)).
position((13,16),cell,track(0)).
position((13,17),cell,track(0)).
position((13,18),cell,track(0)).
position((13,19),cell,track(0)).
position((1,31),cell,track(0)).
position((13,1),cell,track(0)).
position((13,20),cell,track(0)).
position((13,21),cell,track(0)).
position((13,22),cell,track(0)).
position((13,23),cell,track(0)).
position((13,24),cell,track(0)).
position((13,25),cell,track(0)).
position((13,26),cell,track(0)).
position((13,27),cell,track(0)).
position((13,28),cell,track(0)).
position((13,29),cell,track(0)).
position((1,32),cell,track(0)).
position((13,2),cell,track(0)).
position((13,30),cell,track(0)).
position((13,31),cell,track(0)).
position((13,32),cell,track(0)).
position((13,33),cell,track(0)).
position((13,34),cell,track(0)).
position((13,35),cell,track(0)).
position((13,36),cell,track(0)).
position((13,37),cell,track(0)).
position((13,38),cell,track(0)).
position((13,39),cell,track(0)).
position((1,33),cell,track(0)).
position((13,3),cell,track(0)).
position((13,40),cell,track(0)).
position((13,41),cell,track(0)).
position((13,42),cell,track(0)).
position((13,43),cell,track(0)).
position((13,44),cell,track(0)).
position((13,45),cell,track(0)).
position((13,46),cell,track(0)).
position((13,47),cell,track(0)).
position((13,48),cell,track(0)).
position((13,49),cell,track(0)).
position((1,34),cell,track(0)).
position((13,4),cell,track(0)).
position((13,50),cell,track(0)).
position((13,51),cell,track(0)).
position((13,52),cell,track(0)).
position((13,53),cell,track(0)).
position((13,54),cell,track(0)).
position((13,55),cell,track(0)).
position((13,56),cell,track(0)).
position((13,57),cell,track(0)).
position((13,58),cell,track(0)).
position((13,59),cell,track(0)).
position((1,35),cell,track(0)).
position((13,5),cell,track(0)).
position((13,60),cell,track(0)).
position((13,61),cell,track(0)).
position((13,62),cell,track(0)).
position((13,63),cell,track(0)).
position((13,64),cell,track(0)).
position((13,65),cell,track(0)).
position((13,66),cell,track(0)).
position((13,67),cell,track(0)).
position((13,68),cell,track(0)).
position((13,69),cell,track(0)).
position((1,36),cell,track(0)).
position((13,6),cell,track(0)).
position((13,70),cell,track(0)).
position((13,71),cell,track(0)).
position((13,72),cell,track(0)).
position((13,73),cell,track(0)).
position((13,74),cell,track(0)).
position((13,75),cell,track(0)).
position((13,76),cell,track(0)).
position((13,77),cell,track(0)).
position((13,78),cell,track(0)).
position((13,79),cell,track(0)).
position((1,37),cell,track(0)).
position((13,7),cell,track(0)).
position((1,38),cell,track(0)).
position((13,8),cell,track(0)).
position((1,39),cell,track(0)).
position((13,9),cell,track(0)).
position((1,3),cell,track(0)).
position((1,40),cell,track(0)).
position((14,0),cell,track(0)).
position((14,10),cell,track(0)).
position((14,11),cell,track(0)).
position((14,12),cell,track(0)).
position((14,13),cell,track(0)).
position((14,14),cell,track(0)).
position((14,15),cell,track(16386)).
position((14,16),cell,track(1025)).
position((14,17),cell,track(5633)).
position((14,18),cell,track(17411)).
position((14,19),cell,track(1025)).
position((1,41),cell,track(0)).
position((14,1),cell,track(0)).
position((14,20),cell,track(1025)).
position((14,21),cell,track(1025)).
position((14,22),cell,track(5633)).
position((14,23),cell,track(17411)).
position((14,24),cell,track(1025)).
position((14,25),cell,track(5633)).
position((14,26),cell,track(1025)).
position((14,27),cell,track(1025)).
position((14,28),cell,track(1025)).
position((14,29),cell,track(1025)).
position((1,42),cell,track(0)).
position((14,2),cell,track(0)).
position((14,30),cell,track(4608)).
position((14,31),cell,track(0)).
position((14,32),cell,track(0)).
position((14,33),cell,track(0)).
position((14,34),cell,track(0)).
position((14,35),cell,track(0)).
position((14,36),cell,track(0)).
position((14,37),cell,track(0)).
position((14,38),cell,track(0)).
position((14,39),cell,track(0)).
position((1,43),cell,track(0)).
position((14,3),cell,track(0)).
position((14,40),cell,track(0)).
position((14,41),cell,track(0)).
position((14,42),cell,track(0)).
position((14,43),cell,track(0)).
position((14,44),cell,track(0)).
position((14,45),cell,track(0)).
position((14,46),cell,track(0)).
position((14,47),cell,track(0)).
position((14,48),cell,track(0)).
position((14,49),cell,track(0)).
position((1,44),cell,track(0)).
position((14,4),cell,track(0)).
position((14,50),cell,track(0)).
position((14,51),cell,track(0)).
position((14,52),cell,track(0)).
position((14,53),cell,track(0)).
position((14,54),cell,track(0)).
position((14,55),cell,track(0)).
position((14,56),cell,track(0)).
position((14,57),cell,track(0)).
position((14,58),cell,track(0)).
position((14,59),cell,track(0)).
position((1,45),cell,track(0)).
position((14,5),cell,track(0)).
position((14,60),cell,track(0)).
position((14,61),cell,track(0)).
position((14,62),cell,track(0)).
position((14,63),cell,track(0)).
position((14,64),cell,track(0)).
position((14,65),cell,track(0)).
position((14,66),cell,track(0)).
position((14,67),cell,track(0)).
position((14,68),cell,track(0)).
position((14,69),cell,track(0)).
position((1,46),cell,track(0)).
position((14,6),cell,track(0)).
position((14,70),cell,track(0)).
position((14,71),cell,track(0)).
position((14,72),cell,track(0)).
position((14,73),cell,track(0)).
position((14,74),cell,track(0)).
position((14,75),cell,track(0)).
position((14,76),cell,track(0)).
position((14,77),cell,track(0)).
position((14,78),cell,track(0)).
position((14,79),cell,track(0)).
position((1,47),cell,track(0)).
position((14,7),cell,track(0)).
position((1,48),cell,track(0)).
position((14,8),cell,track(0)).
position((1,49),cell,track(0)).
position((14,9),cell,track(0)).
position((1,4),cell,track(0)).
position((1,50),cell,track(0)).
position((15,0),cell,track(0)).
position((15,10),cell,track(0)).
position((15,11),cell,track(0)).
position((15,12),cell,track(0)).
position((15,13),cell,track(0)).
position((15,14),cell,track(0)).
position((15,15),cell,track(32800)).
position((15,16),cell,track(0)).
position((15,17),cell,track(72)).
position((15,18),cell,track(3089)).
position((15,19),cell,track(1025)).
position((1,51),cell,track(0)).
position((15,1),cell,track(0)).
position((15,20),cell,track(1025)).
position((15,21),cell,track(1025)).
position((15,22),cell,track(1097)).
position((15,23),cell,track(2064)).
position((15,24),cell,track(0)).
position((15,25),cell,track(72)).
position((15,26),cell,track(1025)).
position((15,27),cell,track(1025)).
position((15,28),cell,track(4608)).
position((15,29),cell,track(0)).
position((1,52),cell,track(0)).
position((15,2),cell,track(0)).
position((15,30),cell,track(72)).
position((15,31),cell,track(4608)).
position((15,32),cell,track(0)).
position((15,33),cell,track(0)).
position((15,34),cell,track(0)).
position((15,35),cell,track(0)).
position((15,36),cell,track(0)).
position((15,37),cell,track(0)).
position((15,38),cell,track(0)).
position((15,39),cell,track(0)).
position((1,53),cell,track(0)).
position((15,3),cell,track(0)).
position((15,40),cell,track(0)).
position((15,41),cell,track(0)).
position((15,42),cell,track(0)).
position((15,43),cell,track(0)).
position((15,44),cell,track(0)).
position((15,45),cell,track(0)).
position((15,46),cell,track(0)).
position((15,47),cell,track(0)).
position((15,48),cell,track(0)).
position((15,49),cell,track(0)).
position((1,54),cell,track(0)).
position((15,4),cell,track(0)).
position((15,50),cell,track(0)).
position((15,51),cell,track(0)).
position((15,52),cell,track(0)).
position((15,53),cell,track(0)).
position((15,54),cell,track(0)).
position((15,55),cell,track(0)).
position((15,56),cell,track(0)).
position((15,57),cell,track(0)).
position((15,58),cell,track(0)).
position((15,59),cell,track(0)).
position((1,55),cell,track(0)).
position((15,5),cell,track(0)).
position((15,60),cell,track(0)).
position((15,61),cell,track(0)).
position((15,62),cell,track(0)).
position((15,63),cell,track(0)).
position((15,64),cell,track(0)).
position((15,65),cell,track(0)).
position((15,66),cell,track(0)).
position((15,67),cell,track(0)).
position((15,68),cell,track(0)).
position((15,69),cell,track(0)).
position((1,56),cell,track(0)).
position((15,6),cell,track(0)).
position((15,70),cell,track(0)).
position((15,71),cell,track(0)).
position((15,72),cell,track(0)).
position((15,73),cell,track(0)).
position((15,74),cell,track(0)).
position((15,75),cell,track(0)).
position((15,76),cell,track(0)).
position((15,77),cell,track(0)).
position((15,78),cell,track(0)).
position((15,79),cell,track(0)).
position((1,57),cell,track(0)).
position((15,7),cell,track(0)).
position((1,58),cell,track(0)).
position((15,8),cell,track(0)).
position((1,59),cell,track(0)).
position((15,9),cell,track(0)).
position((1,5),cell,track(0)).
position((1,60),cell,track(0)).
position((16,0),cell,track(0)).
position((16,10),cell,track(0)).
position((16,11),cell,track(0)).
position((16,12),cell,track(0)).
position((16,13),cell,track(0)).
position((16,14),cell,track(0)).
position((16,15),cell,track(32800)).
position((16,16),cell,track(0)).
position((16,17),cell,track(0)).
position((16,18),cell,track(0)).
position((16,19),cell,track(0)).
position((1,61),cell,track(0)).
position((16,1),cell,track(0)).
position((16,20),cell,track(0)).
position((16,21),cell,track(0)).
position((16,22),cell,track(0)).
position((16,23),cell,track(0)).
position((16,24),cell,track(0)).
position((16,25),cell,track(0)).
position((16,26),cell,track(0)).
position((16,27),cell,track(0)).
position((16,28),cell,track(32800)).
position((16,29),cell,track(0)).
position((1,62),cell,track(0)).
position((16,2),cell,track(0)).
position((16,30),cell,track(0)).
position((16,31),cell,track(32800)).
position((16,32),cell,track(0)).
position((16,33),cell,track(0)).
position((16,34),cell,track(0)).
position((16,35),cell,track(0)).
position((16,36),cell,track(0)).
position((16,37),cell,track(0)).
position((16,38),cell,track(0)).
position((16,39),cell,track(0)).
position((1,63),cell,track(0)).
position((16,3),cell,track(0)).
position((16,40),cell,track(0)).
position((16,41),cell,track(0)).
position((16,42),cell,track(0)).
position((16,43),cell,track(0)).
position((16,44),cell,track(0)).
position((16,45),cell,track(0)).
position((16,46),cell,track(0)).
position((16,47),cell,track(0)).
position((16,48),cell,track(0)).
position((16,49),cell,track(0)).
position((1,64),cell,track(0)).
position((16,4),cell,track(0)).
position((16,50),cell,track(0)).
position((16,51),cell,track(0)).
position((16,52),cell,track(0)).
position((16,53),cell,track(0)).
position((16,54),cell,track(0)).
position((16,55),cell,track(0)).
position((16,56),cell,track(0)).
position((16,57),cell,track(0)).
position((16,58),cell,track(0)).
position((16,59),cell,track(0)).
position((1,65),cell,track(0)).
position((16,5),cell,track(0)).
position((16,60),cell,track(0)).
position((16,61),cell,track(0)).
position((16,62),cell,track(0)).
position((16,63),cell,track(0)).
position((16,64),cell,track(0)).
position((16,65),cell,track(0)).
position((16,66),cell,track(0)).
position((16,67),cell,track(0)).
position((16,68),cell,track(0)).
position((16,69),cell,track(0)).
position((1,66),cell,track(0)).
position((16,6),cell,track(0)).
position((16,70),cell,track(0)).
position((16,71),cell,track(0)).
position((16,72),cell,track(0)).
position((16,73),cell,track(0)).
position((16,74),cell,track(0)).
position((16,75),cell,track(0)).
position((16,76),cell,track(0)).
position((16,77),cell,track(0)).
position((16,78),cell,track(0)).
position((16,79),cell,track(0)).
position((1,67),cell,track(0)).
position((16,7),cell,track(0)).
position((1,68),cell,track(0)).
position((16,8),cell,track(0)).
position((1,69),cell,track(0)).
position((16,9),cell,track(0)).
position((1,6),cell,track(0)).
position((1,70),cell,track(0)).
position((17,0),cell,track(0)).
position((17,10),cell,track(0)).
position((17,11),cell,track(0)).
position((17,12),cell,track(0)).
position((17,13),cell,track(0)).
position((17,14),cell,track(0)).
position((17,15),cell,track(32800)).
position((17,16),cell,track(0)).
position((17,17),cell,track(0)).
position((17,18),cell,track(0)).
position((17,19),cell,track(0)).
position((1,71),cell,track(0)).
position((17,1),cell,track(0)).
position((17,20),cell,track(0)).
position((17,21),cell,track(0)).
position((17,22),cell,track(0)).
position((17,23),cell,track(0)).
position((17,24),cell,track(0)).
position((17,25),cell,track(0)).
position((17,26),cell,track(0)).
position((17,27),cell,track(0)).
position((17,28),cell,track(72)).
position((17,29),cell,track(4608)).
position((1,72),cell,track(0)).
position((17,2),cell,track(0)).
position((17,30),cell,track(0)).
position((17,31),cell,track(32800)).
position((17,32),cell,track(0)).
position((17,33),cell,track(0)).
position((17,34),cell,track(0)).
position((17,35),cell,track(0)).
position((17,36),cell,track(0)).
position((17,37),cell,track(0)).
position((17,38),cell,track(0)).
position((17,39),cell,track(0)).
position((1,73),cell,track(0)).
position((17,3),cell,track(0)).
position((17,40),cell,track(0)).
position((17,41),cell,track(0)).
position((17,42),cell,track(0)).
position((17,43),cell,track(0)).
position((17,44),cell,track(0)).
position((17,45),cell,track(0)).
position((17,46),cell,track(0)).
position((17,47),cell,track(0)).
position((17,48),cell,track(0)).
position((17,49),cell,track(0)).
position((1,74),cell,track(0)).
position((17,4),cell,track(0)).
position((17,50),cell,track(0)).
position((17,51),cell,track(0)).
position((17,52),cell,track(0)).
position((17,53),cell,track(0)).
position((17,54),cell,track(0)).
position((17,55),cell,track(0)).
position((17,56),cell,track(0)).
position((17,57),cell,track(0)).
position((17,58),cell,track(0)).
position((17,59),cell,track(0)).
position((1,75),cell,track(0)).
position((17,5),cell,track(0)).
position((17,60),cell,track(0)).
position((17,61),cell,track(0)).
position((17,62),cell,track(0)).
position((17,63),cell,track(0)).
position((17,64),cell,track(0)).
position((17,65),cell,track(0)).
position((17,66),cell,track(0)).
position((17,67),cell,track(0)).
position((17,68),cell,track(0)).
position((17,69),cell,track(0)).
position((1,76),cell,track(0)).
position((17,6),cell,track(0)).
position((17,70),cell,track(0)).
position((17,71),cell,track(0)).
position((17,72),cell,track(0)).
position((17,73),cell,track(0)).
position((17,74),cell,track(0)).
position((17,75),cell,track(0)).
position((17,76),cell,track(0)).
position((17,77),cell,track(0)).
position((17,78),cell,track(0)).
position((17,79),cell,track(0)).
position((1,77),cell,track(0)).
position((17,7),cell,track(0)).
position((1,78),cell,track(0)).
position((17,8),cell,track(0)).
position((1,79),cell,track(0)).
position((17,9),cell,track(0)).
position((1,7),cell,track(0)).
position((18,0),cell,track(0)).
position((18,10),cell,track(0)).
position((18,11),cell,track(0)).
position((18,12),cell,track(0)).
position((18,13),cell,track(0)).
position((18,14),cell,track(0)).
position((18,15),cell,track(32800)).
position((18,16),cell,track(0)).
position((18,17),cell,track(0)).
position((18,18),cell,track(0)).
position((18,19),cell,track(0)).
position((18,1),cell,track(0)).
position((18,20),cell,track(0)).
position((18,21),cell,track(0)).
position((18,22),cell,track(0)).
position((18,23),cell,track(0)).
position((18,24),cell,track(0)).
position((18,25),cell,track(0)).
position((18,26),cell,track(0)).
position((18,27),cell,track(0)).
position((18,28),cell,track(0)).
position((18,29),cell,track(72)).
position((18,2),cell,track(0)).
position((18,30),cell,track(1025)).
position((18,31),cell,track(38505)).
position((18,32),cell,track(1025)).
position((18,33),cell,track(5633)).
position((18,34),cell,track(17411)).
position((18,35),cell,track(1025)).
position((18,36),cell,track(1025)).
position((18,37),cell,track(1025)).
position((18,38),cell,track(5633)).
position((18,39),cell,track(17411)).
position((18,3),cell,track(0)).
position((18,40),cell,track(1025)).
position((18,41),cell,track(5633)).
position((18,42),cell,track(1025)).
position((18,43),cell,track(1025)).
position((18,44),cell,track(1025)).
position((18,45),cell,track(1025)).
position((18,46),cell,track(1025)).
position((18,47),cell,track(1025)).
position((18,48),cell,track(1025)).
position((18,49),cell,track(1025)).
position((18,4),cell,track(0)).
position((18,50),cell,track(1025)).
position((18,51),cell,track(1025)).
position((18,52),cell,track(1025)).
position((18,53),cell,track(1025)).
position((18,54),cell,track(1025)).
position((18,55),cell,track(1025)).
position((18,56),cell,track(1025)).
position((18,57),cell,track(1025)).
position((18,58),cell,track(1025)).
position((18,59),cell,track(1025)).
position((18,5),cell,track(0)).
position((18,60),cell,track(1025)).
position((18,61),cell,track(1025)).
position((18,62),cell,track(1025)).
position((18,63),cell,track(1025)).
position((18,64),cell,track(1025)).
position((18,65),cell,track(1025)).
position((18,66),cell,track(1025)).
position((18,67),cell,track(1025)).
position((18,68),cell,track(1025)).
position((18,69),cell,track(5633)).
position((18,6),cell,track(0)).
position((18,70),cell,track(17411)).
position((18,71),cell,track(1025)).
position((18,72),cell,track(1025)).
position((18,73),cell,track(1025)).
position((18,74),cell,track(5633)).
position((18,75),cell,track(17411)).
position((18,76),cell,track(1025)).
position((18,77),cell,track(4608)).
position((18,78),cell,track(0)).
position((18,79),cell,track(0)).
position((18,7),cell,track(0)).
position((18,8),cell,track(0)).
position((18,9),cell,track(0)).
position((1,8),cell,track(0)).
position((19,0),cell,track(0)).
position((19,10),cell,track(0)).
position((19,11),cell,track(0)).
position((19,12),cell,track(0)).
position((19,13),cell,track(0)).
position((19,14),cell,track(0)).
position((19,15),cell,track(72)).
position((19,16),cell,track(4608)).
position((19,17),cell,track(0)).
position((19,18),cell,track(0)).
position((19,19),cell,track(0)).
position((19,1),cell,track(0)).
position((19,20),cell,track(0)).
position((19,21),cell,track(0)).
position((19,22),cell,track(0)).
position((19,23),cell,track(0)).
position((19,24),cell,track(0)).
position((19,25),cell,track(0)).
position((19,26),cell,track(0)).
position((19,27),cell,track(0)).
position((19,28),cell,track(0)).
position((19,29),cell,track(0)).
position((19,2),cell,track(0)).
position((19,30),cell,track(16386)).
position((19,31),cell,track(34864)).
position((19,32),cell,track(0)).
position((19,33),cell,track(72)).
position((19,34),cell,track(3089)).
position((19,35),cell,track(1025)).
position((19,36),cell,track(1025)).
position((19,37),cell,track(1025)).
position((19,38),cell,track(1097)).
position((19,39),cell,track(2064)).
position((19,3),cell,track(0)).
position((19,40),cell,track(0)).
position((19,41),cell,track(32800)).
position((19,42),cell,track(0)).
position((19,43),cell,track(0)).
position((19,44),cell,track(0)).
position((19,45),cell,track(0)).
position((19,46),cell,track(0)).
position((19,47),cell,track(0)).
position((19,48),cell,track(0)).
position((19,49),cell,track(0)).
position((19,4),cell,track(0)).
position((19,50),cell,track(0)).
position((19,51),cell,track(0)).
position((19,52),cell,track(0)).
position((19,53),cell,track(0)).
position((19,54),cell,track(0)).
position((19,55),cell,track(0)).
position((19,56),cell,track(0)).
position((19,57),cell,track(0)).
position((19,58),cell,track(0)).
position((19,59),cell,track(0)).
position((19,5),cell,track(0)).
position((19,60),cell,track(0)).
position((19,61),cell,track(0)).
position((19,62),cell,track(0)).
position((19,63),cell,track(0)).
position((19,64),cell,track(0)).
position((19,65),cell,track(0)).
position((19,66),cell,track(0)).
position((19,67),cell,track(0)).
position((19,68),cell,track(0)).
position((19,69),cell,track(72)).
position((19,6),cell,track(0)).
position((19,70),cell,track(3089)).
position((19,71),cell,track(1025)).
position((19,72),cell,track(1025)).
position((19,73),cell,track(1025)).
position((19,74),cell,track(1097)).
position((19,75),cell,track(2064)).
position((19,76),cell,track(0)).
position((19,77),cell,track(32800)).
position((19,78),cell,track(0)).
position((19,79),cell,track(0)).
position((19,7),cell,track(0)).
position((19,8),cell,track(0)).
position((19,9),cell,track(0)).
position((1,9),cell,track(0)).
position((20,0),cell,track(0)).
position((20,10),cell,track(0)).
position((20,11),cell,track(0)).
position((20,12),cell,track(0)).
position((20,13),cell,track(0)).
position((20,14),cell,track(0)).
position((20,15),cell,track(0)).
position((20,16),cell,track(32800)).
position((20,17),cell,track(0)).
position((20,18),cell,track(0)).
position((20,19),cell,track(0)).
position((20,1),cell,track(0)).
position((20,20),cell,track(0)).
position((20,21),cell,track(0)).
position((20,22),cell,track(0)).
position((20,23),cell,track(0)).
position((20,24),cell,track(0)).
position((20,25),cell,track(0)).
position((20,26),cell,track(0)).
position((20,27),cell,track(0)).
position((20,28),cell,track(0)).
position((20,29),cell,track(16386)).
position((20,2),cell,track(0)).
position((20,30),cell,track(2064)).
position((20,31),cell,track(32800)).
position((20,32),cell,track(0)).
position((20,33),cell,track(0)).
position((20,34),cell,track(0)).
position((20,35),cell,track(0)).
position((20,36),cell,track(0)).
position((20,37),cell,track(0)).
position((20,38),cell,track(0)).
position((20,39),cell,track(0)).
position((20,3),cell,track(0)).
position((20,40),cell,track(0)).
position((20,41),cell,track(32800)).
position((20,42),cell,track(0)).
position((20,43),cell,track(0)).
position((20,44),cell,track(0)).
position((20,45),cell,track(0)).
position((20,46),cell,track(0)).
position((20,47),cell,track(0)).
position((20,48),cell,track(0)).
position((20,49),cell,track(0)).
position((20,4),cell,track(0)).
position((20,50),cell,track(0)).
position((20,51),cell,track(0)).
position((20,52),cell,track(0)).
position((20,53),cell,track(0)).
position((20,54),cell,track(0)).
position((20,55),cell,track(0)).
position((20,56),cell,track(0)).
position((20,57),cell,track(0)).
position((20,58),cell,track(0)).
position((20,59),cell,track(0)).
position((20,5),cell,track(0)).
position((20,60),cell,track(0)).
position((20,61),cell,track(0)).
position((20,62),cell,track(0)).
position((20,63),cell,track(0)).
position((20,64),cell,track(0)).
position((20,65),cell,track(0)).
position((20,66),cell,track(0)).
position((20,67),cell,track(0)).
position((20,68),cell,track(0)).
position((20,69),cell,track(0)).
position((20,6),cell,track(0)).
position((20,70),cell,track(0)).
position((20,71),cell,track(0)).
position((20,72),cell,track(0)).
position((20,73),cell,track(0)).
position((20,74),cell,track(0)).
position((20,75),cell,track(0)).
position((20,76),cell,track(0)).
position((20,77),cell,track(32800)).
position((20,78),cell,track(0)).
position((20,79),cell,track(0)).
position((20,7),cell,track(0)).
position((20,8),cell,track(0)).
position((20,9),cell,track(0)).
position((2,0),cell,track(0)).
position((2,10),cell,track(0)).
position((21,0),cell,track(0)).
position((21,10),cell,track(0)).
position((21,11),cell,track(0)).
position((21,12),cell,track(0)).
position((21,13),cell,track(0)).
position((21,14),cell,track(0)).
position((21,15),cell,track(0)).
position((21,16),cell,track(32800)).
position((21,17),cell,track(0)).
position((21,18),cell,track(0)).
position((21,19),cell,track(0)).
position((2,11),cell,track(0)).
position((21,1),cell,track(0)).
position((21,20),cell,track(0)).
position((21,21),cell,track(0)).
position((21,22),cell,track(0)).
position((21,23),cell,track(0)).
position((21,24),cell,track(0)).
position((21,25),cell,track(0)).
position((21,26),cell,track(0)).
position((21,27),cell,track(0)).
position((21,28),cell,track(0)).
position((21,29),cell,track(32800)).
position((2,12),cell,track(0)).
position((21,2),cell,track(0)).
position((21,30),cell,track(0)).
position((21,31),cell,track(32800)).
position((21,32),cell,track(0)).
position((21,33),cell,track(0)).
position((21,34),cell,track(0)).
position((21,35),cell,track(0)).
position((21,36),cell,track(0)).
position((21,37),cell,track(0)).
position((21,38),cell,track(0)).
position((21,39),cell,track(0)).
position((2,13),cell,track(0)).
position((21,3),cell,track(0)).
position((21,40),cell,track(0)).
position((21,41),cell,track(32800)).
position((21,42),cell,track(0)).
position((21,43),cell,track(0)).
position((21,44),cell,track(0)).
position((21,45),cell,track(0)).
position((21,46),cell,track(0)).
position((21,47),cell,track(0)).
position((21,48),cell,track(0)).
position((21,49),cell,track(0)).
position((2,14),cell,track(0)).
position((21,4),cell,track(0)).
position((21,50),cell,track(0)).
position((21,51),cell,track(0)).
position((21,52),cell,track(0)).
position((21,53),cell,track(0)).
position((21,54),cell,track(0)).
position((21,55),cell,track(0)).
position((21,56),cell,track(0)).
position((21,57),cell,track(0)).
position((21,58),cell,track(0)).
position((21,59),cell,track(0)).
position((2,15),cell,track(0)).
position((21,5),cell,track(0)).
position((21,60),cell,track(0)).
position((21,61),cell,track(0)).
position((21,62),cell,track(0)).
position((21,63),cell,track(0)).
position((21,64),cell,track(0)).
position((21,65),cell,track(0)).
position((21,66),cell,track(0)).
position((21,67),cell,track(0)).
position((21,68),cell,track(0)).
position((21,69),cell,track(0)).
position((2,16),cell,track(0)).
position((21,6),cell,track(0)).
position((21,70),cell,track(0)).
position((21,71),cell,track(0)).
position((21,72),cell,track(0)).
position((21,73),cell,track(0)).
position((21,74),cell,track(0)).
position((21,75),cell,track(0)).
position((21,76),cell,track(0)).
position((21,77),cell,track(32800)).
position((21,78),cell,track(0)).
position((21,79),cell,track(0)).
position((2,17),cell,track(0)).
position((21,7),cell,track(0)).
position((2,18),cell,track(0)).
position((21,8),cell,track(0)).
position((2,19),cell,track(0)).
position((21,9),cell,track(0)).
position((2,1),cell,track(0)).
position((2,20),cell,track(0)).
position((22,0),cell,track(0)).
position((22,10),cell,track(0)).
position((22,11),cell,track(0)).
position((22,12),cell,track(0)).
position((22,13),cell,track(0)).
position((22,14),cell,track(0)).
position((22,15),cell,track(0)).
position((22,16),cell,track(32800)).
position((22,17),cell,track(0)).
position((22,18),cell,track(0)).
position((22,19),cell,track(0)).
position((2,21),cell,track(0)).
position((22,1),cell,track(0)).
position((22,20),cell,track(0)).
position((22,21),cell,track(0)).
position((22,22),cell,track(0)).
position((22,23),cell,track(0)).
position((22,24),cell,track(0)).
position((22,25),cell,track(0)).
position((22,26),cell,track(0)).
position((22,27),cell,track(0)).
position((22,28),cell,track(0)).
position((22,29),cell,track(32800)).
position((2,22),cell,track(0)).
position((22,2),cell,track(0)).
position((22,30),cell,track(0)).
position((22,31),cell,track(32800)).
position((22,32),cell,track(0)).
position((22,33),cell,track(0)).
position((22,34),cell,track(0)).
position((22,35),cell,track(0)).
position((22,36),cell,track(0)).
position((22,37),cell,track(0)).
position((22,38),cell,track(0)).
position((22,39),cell,track(0)).
position((2,23),cell,track(0)).
position((22,3),cell,track(0)).
position((22,40),cell,track(0)).
position((22,41),cell,track(32800)).
position((22,42),cell,track(0)).
position((22,43),cell,track(0)).
position((22,44),cell,track(0)).
position((22,45),cell,track(0)).
position((22,46),cell,track(0)).
position((22,47),cell,track(0)).
position((22,48),cell,track(0)).
position((22,49),cell,track(0)).
position((2,24),cell,track(0)).
position((22,4),cell,track(0)).
position((22,50),cell,track(0)).
position((22,51),cell,track(0)).
position((22,52),cell,track(0)).
position((22,53),cell,track(0)).
position((22,54),cell,track(0)).
position((22,55),cell,track(0)).
position((22,56),cell,track(0)).
position((22,57),cell,track(0)).
position((22,58),cell,track(0)).
position((22,59),cell,track(0)).
position((2,25),cell,track(0)).
position((22,5),cell,track(0)).
position((22,60),cell,track(0)).
position((22,61),cell,track(0)).
position((22,62),cell,track(0)).
position((22,63),cell,track(0)).
position((22,64),cell,track(0)).
position((22,65),cell,track(0)).
position((22,66),cell,track(0)).
position((22,67),cell,track(0)).
position((22,68),cell,track(0)).
position((22,69),cell,track(0)).
position((2,26),cell,track(0)).
position((22,6),cell,track(0)).
position((22,70),cell,track(0)).
position((22,71),cell,track(0)).
position((22,72),cell,track(0)).
position((22,73),cell,track(0)).
position((22,74),cell,track(0)).
position((22,75),cell,track(0)).
position((22,76),cell,track(0)).
position((22,77),cell,track(32800)).
position((22,78),cell,track(0)).
position((22,79),cell,track(0)).
position((2,27),cell,track(0)).
position((22,7),cell,track(0)).
position((2,28),cell,track(0)).
position((22,8),cell,track(0)).
position((2,29),cell,track(0)).
position((22,9),cell,track(0)).
position((2,2),cell,track(0)).
position((2,30),cell,track(0)).
position((23,0),cell,track(0)).
position((23,10),cell,track(0)).
position((23,11),cell,track(0)).
position((23,12),cell,track(0)).
position((23,13),cell,track(0)).
position((23,14),cell,track(0)).
position((23,15),cell,track(0)).
position((23,16),cell,track(32800)).
position((23,17),cell,track(0)).
position((23,18),cell,track(0)).
position((23,19),cell,track(0)).
position((2,31),cell,track(0)).
position((23,1),cell,track(0)).
position((23,20),cell,track(0)).
position((23,21),cell,track(0)).
position((23,22),cell,track(0)).
position((23,23),cell,track(0)).
position((23,24),cell,track(0)).
position((23,25),cell,track(0)).
position((23,26),cell,track(0)).
position((23,27),cell,track(0)).
position((23,28),cell,track(0)).
position((23,29),cell,track(32800)).
position((2,32),cell,track(0)).
position((23,2),cell,track(0)).
position((23,30),cell,track(0)).
position((23,31),cell,track(32800)).
position((23,32),cell,track(0)).
position((23,33),cell,track(0)).
position((23,34),cell,track(0)).
position((23,35),cell,track(0)).
position((23,36),cell,track(0)).
position((23,37),cell,track(0)).
position((23,38),cell,track(0)).
position((23,39),cell,track(0)).
position((2,33),cell,track(0)).
position((23,3),cell,track(0)).
position((23,40),cell,track(0)).
position((23,41),cell,track(32800)).
position((23,42),cell,track(0)).
position((23,43),cell,track(0)).
position((23,44),cell,track(0)).
position((23,45),cell,track(0)).
position((23,46),cell,track(0)).
position((23,47),cell,track(0)).
position((23,48),cell,track(0)).
position((23,49),cell,track(0)).
position((2,34),cell,track(0)).
position((23,4),cell,track(0)).
position((23,50),cell,track(0)).
position((23,51),cell,track(0)).
position((23,52),cell,track(0)).
position((23,53),cell,track(0)).
position((23,54),cell,track(0)).
position((23,55),cell,track(0)).
position((23,56),cell,track(0)).
position((23,57),cell,track(0)).
position((23,58),cell,track(0)).
position((23,59),cell,track(0)).
position((2,35),cell,track(0)).
position((23,5),cell,track(0)).
position((23,60),cell,track(0)).
position((23,61),cell,track(0)).
position((23,62),cell,track(0)).
position((23,63),cell,track(0)).
position((23,64),cell,track(0)).
position((23,65),cell,track(0)).
position((23,66),cell,track(0)).
position((23,67),cell,track(0)).
position((23,68),cell,track(0)).
position((23,69),cell,track(0)).
position((2,36),cell,track(0)).
position((23,6),cell,track(0)).
position((23,70),cell,track(0)).
position((23,71),cell,track(0)).
position((23,72),cell,track(0)).
position((23,73),cell,track(0)).
position((23,74),cell,track(0)).
position((23,75),cell,track(16386)).
position((23,76),cell,track(1025)).
position((23,77),cell,track(2064)).
position((23,78),cell,track(0)).
position((23,79),cell,track(0)).
position((2,37),cell,track(0)).
position((23,7),cell,track(0)).
position((2,38),cell,track(0)).
position((23,8),cell,track(0)).
position((2,39),cell,track(0)).
position((23,9),cell,track(0)).
position((2,3),cell,track(0)).
position((2,40),cell,track(0)).
position((24,0),cell,track(0)).
position((24,10),cell,track(0)).
position((24,11),cell,track(0)).
position((24,12),cell,track(0)).
position((24,13),cell,track(0)).
position((24,14),cell,track(0)).
position((24,15),cell,track(0)).
position((24,16),cell,track(32800)).
position((24,17),cell,track(0)).
position((24,18),cell,track(0)).
position((24,19),cell,track(0)).
position((2,41),cell,track(0)).
position((24,1),cell,track(0)).
position((24,20),cell,track(0)).
position((24,21),cell,track(0)).
position((24,22),cell,track(0)).
position((24,23),cell,track(0)).
position((24,24),cell,track(0)).
position((24,25),cell,track(0)).
position((24,26),cell,track(0)).
position((24,27),cell,track(0)).
position((24,28),cell,track(16386)).
position((24,29),cell,track(2064)).
position((2,42),cell,track(0)).
position((24,2),cell,track(0)).
position((24,30),cell,track(0)).
position((24,31),cell,track(32800)).
position((24,32),cell,track(0)).
position((24,33),cell,track(0)).
position((24,34),cell,track(0)).
position((24,35),cell,track(0)).
position((24,36),cell,track(0)).
position((24,37),cell,track(0)).
position((24,38),cell,track(0)).
position((24,39),cell,track(0)).
position((2,43),cell,track(0)).
position((24,3),cell,track(0)).
position((24,40),cell,track(0)).
position((24,41),cell,track(32800)).
position((24,42),cell,track(0)).
position((24,43),cell,track(0)).
position((24,44),cell,track(0)).
position((24,45),cell,track(0)).
position((24,46),cell,track(0)).
position((24,47),cell,track(0)).
position((24,48),cell,track(0)).
position((24,49),cell,track(0)).
position((2,44),cell,track(0)).
position((24,4),cell,track(0)).
position((24,50),cell,track(0)).
position((24,51),cell,track(0)).
position((24,52),cell,track(0)).
position((24,53),cell,track(0)).
position((24,54),cell,track(0)).
position((24,55),cell,track(0)).
position((24,56),cell,track(0)).
position((24,57),cell,track(0)).
position((24,58),cell,track(0)).
position((24,59),cell,track(0)).
position((2,45),cell,track(0)).
position((24,5),cell,track(0)).
position((24,60),cell,track(0)).
position((24,61),cell,track(0)).
position((24,62),cell,track(0)).
position((24,63),cell,track(0)).
position((24,64),cell,track(0)).
position((24,65),cell,track(0)).
position((24,66),cell,track(0)).
position((24,67),cell,track(0)).
position((24,68),cell,track(0)).
position((24,69),cell,track(0)).
position((2,46),cell,track(0)).
position((24,6),cell,track(0)).
position((24,70),cell,track(0)).
position((24,71),cell,track(0)).
position((24,72),cell,track(0)).
position((24,73),cell,track(0)).
position((24,74),cell,track(16386)).
position((24,75),cell,track(2064)).
position((24,76),cell,track(0)).
position((24,77),cell,track(0)).
position((24,78),cell,track(0)).
position((24,79),cell,track(0)).
position((2,47),cell,track(0)).
position((24,7),cell,track(0)).
position((2,48),cell,track(0)).
position((24,8),cell,track(0)).
position((2,49),cell,track(0)).
position((24,9),cell,track(0)).
position((2,4),cell,track(0)).
position((2,50),cell,track(0)).
position((25,0),cell,track(0)).
position((25,10),cell,track(0)).
position((25,11),cell,track(0)).
position((25,12),cell,track(0)).
position((25,13),cell,track(0)).
position((25,14),cell,track(0)).
position((25,15),cell,track(0)).
position((25,16),cell,track(32800)).
position((25,17),cell,track(0)).
position((25,18),cell,track(0)).
position((25,19),cell,track(0)).
position((2,51),cell,track(0)).
position((25,1),cell,track(0)).
position((25,20),cell,track(0)).
position((25,21),cell,track(0)).
position((25,22),cell,track(0)).
position((25,23),cell,track(0)).
position((25,24),cell,track(0)).
position((25,25),cell,track(16386)).
position((25,26),cell,track(1025)).
position((25,27),cell,track(1025)).
position((25,28),cell,track(2064)).
position((25,29),cell,track(0)).
position((2,52),cell,track(0)).
position((25,2),cell,track(0)).
position((25,30),cell,track(0)).
position((25,31),cell,track(32800)).
position((25,32),cell,track(0)).
position((25,33),cell,track(0)).
position((25,34),cell,track(0)).
position((25,35),cell,track(0)).
position((25,36),cell,track(0)).
position((25,37),cell,track(0)).
position((25,38),cell,track(0)).
position((25,39),cell,track(0)).
position((2,53),cell,track(0)).
position((25,3),cell,track(0)).
position((25,40),cell,track(0)).
position((25,41),cell,track(32800)).
position((25,42),cell,track(0)).
position((25,43),cell,track(0)).
position((25,44),cell,track(0)).
position((25,45),cell,track(0)).
position((25,46),cell,track(0)).
position((25,47),cell,track(0)).
position((25,48),cell,track(0)).
position((25,49),cell,track(0)).
position((2,54),cell,track(0)).
position((25,4),cell,track(0)).
position((25,50),cell,track(0)).
position((25,51),cell,track(0)).
position((25,52),cell,track(0)).
position((25,53),cell,track(0)).
position((25,54),cell,track(0)).
position((25,55),cell,track(0)).
position((25,56),cell,track(0)).
position((25,57),cell,track(0)).
position((25,58),cell,track(0)).
position((25,59),cell,track(0)).
position((2,55),cell,track(0)).
position((25,5),cell,track(0)).
position((25,60),cell,track(0)).
position((25,61),cell,track(0)).
position((25,62),cell,track(0)).
position((25,63),cell,track(0)).
position((25,64),cell,track(0)).
position((25,65),cell,track(0)).
position((25,66),cell,track(0)).
position((25,67),cell,track(0)).
position((25,68),cell,track(0)).
position((25,69),cell,track(0)).
position((2,56),cell,track(0)).
position((25,6),cell,track(0)).
position((25,70),cell,track(0)).
position((25,71),cell,track(0)).
position((25,72),cell,track(0)).
position((25,73),cell,track(16386)).
position((25,74),cell,track(2064)).
position((25,75),cell,track(0)).
position((25,76),cell,track(0)).
position((25,77),cell,track(0)).
position((25,78),cell,track(0)).
position((25,79),cell,track(0)).
position((2,57),cell,track(0)).
position((25,7),cell,track(0)).
position((2,58),cell,track(0)).
position((25,8),cell,track(0)).
position((2,59),cell,track(0)).
position((25,9),cell,track(0)).
position((2,5),cell,track(0)).
position((2,60),cell,track(0)).
position((26,0),cell,track(0)).
position((26,10),cell,track(0)).
position((26,11),cell,track(0)).
position((26,12),cell,track(0)).
position((26,13),cell,track(0)).
position((26,14),cell,track(0)).
position((26,15),cell,track(0)).
position((26,16),cell,track(32800)).
position((26,17),cell,track(0)).
position((26,18),cell,track(0)).
position((26,19),cell,track(0)).
position((2,61),cell,track(0)).
position((26,1),cell,track(0)).
position((26,20),cell,track(0)).
position((26,21),cell,track(0)).
position((26,22),cell,track(0)).
position((26,23),cell,track(16386)).
position((26,24),cell,track(1025)).
position((26,25),cell,track(2064)).
position((26,26),cell,track(0)).
position((26,27),cell,track(0)).
position((26,28),cell,track(0)).
position((26,29),cell,track(0)).
position((2,62),cell,track(0)).
position((26,2),cell,track(0)).
position((26,30),cell,track(0)).
position((26,31),cell,track(32800)).
position((26,32),cell,track(0)).
position((26,33),cell,track(0)).
position((26,34),cell,track(0)).
position((26,35),cell,track(0)).
position((26,36),cell,track(0)).
position((26,37),cell,track(0)).
position((26,38),cell,track(0)).
position((26,39),cell,track(0)).
position((2,63),cell,track(0)).
position((26,3),cell,track(0)).
position((26,40),cell,track(0)).
position((26,41),cell,track(32800)).
position((26,42),cell,track(0)).
position((26,43),cell,track(0)).
position((26,44),cell,track(0)).
position((26,45),cell,track(0)).
position((26,46),cell,track(0)).
position((26,47),cell,track(0)).
position((26,48),cell,track(0)).
position((26,49),cell,track(0)).
position((2,64),cell,track(0)).
position((26,4),cell,track(0)).
position((26,50),cell,track(0)).
position((26,51),cell,track(0)).
position((26,52),cell,track(0)).
position((26,53),cell,track(0)).
position((26,54),cell,track(0)).
position((26,55),cell,track(0)).
position((26,56),cell,track(0)).
position((26,57),cell,track(0)).
position((26,58),cell,track(0)).
position((26,59),cell,track(0)).
position((2,65),cell,track(0)).
position((26,5),cell,track(0)).
position((26,60),cell,track(0)).
position((26,61),cell,track(0)).
position((26,62),cell,track(0)).
position((26,63),cell,track(0)).
position((26,64),cell,track(0)).
position((26,65),cell,track(0)).
position((26,66),cell,track(0)).
position((26,67),cell,track(0)).
position((26,68),cell,track(0)).
position((26,69),cell,track(0)).
position((2,66),cell,track(0)).
position((26,6),cell,track(0)).
position((26,70),cell,track(0)).
position((26,71),cell,track(16386)).
position((26,72),cell,track(1025)).
position((26,73),cell,track(2064)).
position((26,74),cell,track(0)).
position((26,75),cell,track(0)).
position((26,76),cell,track(0)).
position((26,77),cell,track(0)).
position((26,78),cell,track(0)).
position((26,79),cell,track(0)).
position((2,67),cell,track(0)).
position((26,7),cell,track(0)).
position((2,68),cell,track(0)).
position((26,8),cell,track(0)).
position((2,69),cell,track(0)).
position((26,9),cell,track(0)).
position((2,6),cell,track(0)).
position((2,70),cell,track(0)).
position((27,0),cell,track(0)).
position((27,10),cell,track(0)).
position((27,11),cell,track(0)).
position((27,12),cell,track(0)).
position((27,13),cell,track(0)).
position((27,14),cell,track(0)).
position((27,15),cell,track(0)).
position((27,16),cell,track(32800)).
position((27,17),cell,track(0)).
position((27,18),cell,track(0)).
position((27,19),cell,track(0)).
position((2,71),cell,track(0)).
position((27,1),cell,track(0)).
position((27,20),cell,track(0)).
position((27,21),cell,track(0)).
position((27,22),cell,track(16386)).
position((27,23),cell,track(33825)).
position((27,24),cell,track(1025)).
position((27,25),cell,track(1025)).
position((27,26),cell,track(1025)).
position((27,27),cell,track(1025)).
position((27,28),cell,track(1025)).
position((27,29),cell,track(1025)).
position((2,72),cell,track(0)).
position((27,2),cell,track(0)).
position((27,30),cell,track(1025)).
position((27,31),cell,track(2064)).
position((27,32),cell,track(0)).
position((27,33),cell,track(0)).
position((27,34),cell,track(0)).
position((27,35),cell,track(0)).
position((27,36),cell,track(0)).
position((27,37),cell,track(0)).
position((27,38),cell,track(0)).
position((27,39),cell,track(0)).
position((2,73),cell,track(0)).
position((27,3),cell,track(0)).
position((27,40),cell,track(0)).
position((27,41),cell,track(32800)).
position((27,42),cell,track(0)).
position((27,43),cell,track(0)).
position((27,44),cell,track(0)).
position((27,45),cell,track(0)).
position((27,46),cell,track(0)).
position((27,47),cell,track(0)).
position((27,48),cell,track(0)).
position((27,49),cell,track(0)).
position((2,74),cell,track(0)).
position((27,4),cell,track(0)).
position((27,50),cell,track(0)).
position((27,51),cell,track(0)).
position((27,52),cell,track(0)).
position((27,53),cell,track(0)).
position((27,54),cell,track(0)).
position((27,55),cell,track(0)).
position((27,56),cell,track(0)).
position((27,57),cell,track(0)).
position((27,58),cell,track(0)).
position((27,59),cell,track(0)).
position((2,75),cell,track(0)).
position((27,5),cell,track(0)).
position((27,60),cell,track(0)).
position((27,61),cell,track(0)).
position((27,62),cell,track(0)).
position((27,63),cell,track(0)).
position((27,64),cell,track(0)).
position((27,65),cell,track(0)).
position((27,66),cell,track(0)).
position((27,67),cell,track(0)).
position((27,68),cell,track(0)).
position((27,69),cell,track(0)).
position((2,76),cell,track(0)).
position((27,6),cell,track(0)).
position((27,70),cell,track(0)).
position((27,71),cell,track(32800)).
position((27,72),cell,track(0)).
position((27,73),cell,track(0)).
position((27,74),cell,track(0)).
position((27,75),cell,track(0)).
position((27,76),cell,track(0)).
position((27,77),cell,track(0)).
position((27,78),cell,track(0)).
position((27,79),cell,track(0)).
position((2,77),cell,track(0)).
position((27,7),cell,track(0)).
position((2,78),cell,track(0)).
position((27,8),cell,track(0)).
position((2,79),cell,track(0)).
position((27,9),cell,track(0)).
position((2,7),cell,track(0)).
position((28,0),cell,track(0)).
position((28,10),cell,track(0)).
position((28,11),cell,track(0)).
position((28,12),cell,track(0)).
position((28,13),cell,track(0)).
position((28,14),cell,track(0)).
position((28,15),cell,track(0)).
position((28,16),cell,track(32800)).
position((28,17),cell,track(0)).
position((28,18),cell,track(0)).
position((28,19),cell,track(0)).
position((28,1),cell,track(0)).
position((28,20),cell,track(0)).
position((28,21),cell,track(0)).
position((28,22),cell,track(32800)).
position((28,23),cell,track(32800)).
position((28,24),cell,track(0)).
position((28,25),cell,track(0)).
position((28,26),cell,track(0)).
position((28,27),cell,track(0)).
position((28,28),cell,track(0)).
position((28,29),cell,track(0)).
position((28,2),cell,track(0)).
position((28,30),cell,track(0)).
position((28,31),cell,track(0)).
position((28,32),cell,track(0)).
position((28,33),cell,track(0)).
position((28,34),cell,track(0)).
position((28,35),cell,track(0)).
position((28,36),cell,track(0)).
position((28,37),cell,track(0)).
position((28,38),cell,track(0)).
position((28,39),cell,track(0)).
position((28,3),cell,track(0)).
position((28,40),cell,track(0)).
position((28,41),cell,track(32800)).
position((28,42),cell,track(0)).
position((28,43),cell,track(0)).
position((28,44),cell,track(0)).
position((28,45),cell,track(0)).
position((28,46),cell,track(0)).
position((28,47),cell,track(0)).
position((28,48),cell,track(0)).
position((28,49),cell,track(0)).
position((28,4),cell,track(0)).
position((28,50),cell,track(0)).
position((28,51),cell,track(0)).
position((28,52),cell,track(0)).
position((28,53),cell,track(0)).
position((28,54),cell,track(0)).
position((28,55),cell,track(0)).
position((28,56),cell,track(0)).
position((28,57),cell,track(0)).
position((28,58),cell,track(0)).
position((28,59),cell,track(0)).
position((28,5),cell,track(0)).
position((28,60),cell,track(0)).
position((28,61),cell,track(0)).
position((28,62),cell,track(0)).
position((28,63),cell,track(0)).
position((28,64),cell,track(0)).
position((28,65),cell,track(0)).
position((28,66),cell,track(0)).
position((28,67),cell,track(0)).
position((28,68),cell,track(0)).
position((28,69),cell,track(16386)).
position((28,6),cell,track(0)).
position((28,70),cell,track(1025)).
position((28,71),cell,track(2064)).
position((28,72),cell,track(0)).
position((28,73),cell,track(0)).
position((28,74),cell,track(0)).
position((28,75),cell,track(0)).
position((28,76),cell,track(0)).
position((28,77),cell,track(0)).
position((28,78),cell,track(0)).
position((28,79),cell,track(0)).
position((28,7),cell,track(0)).
position((28,8),cell,track(0)).
position((28,9),cell,track(0)).
position((2,8),cell,track(0)).
position((29,0),cell,track(0)).
position((29,10),cell,track(0)).
position((29,11),cell,track(0)).
position((29,12),cell,track(0)).
position((29,13),cell,track(0)).
position((29,14),cell,track(0)).
position((29,15),cell,track(0)).
position((29,16),cell,track(32800)).
position((29,17),cell,track(0)).
position((29,18),cell,track(0)).
position((29,19),cell,track(0)).
position((29,1),cell,track(0)).
position((29,20),cell,track(0)).
position((29,21),cell,track(0)).
position((29,22),cell,track(32800)).
position((29,23),cell,track(32800)).
position((29,24),cell,track(0)).
position((29,25),cell,track(0)).
position((29,26),cell,track(0)).
position((29,27),cell,track(0)).
position((29,28),cell,track(0)).
position((29,29),cell,track(0)).
position((29,2),cell,track(0)).
position((29,30),cell,track(0)).
position((29,31),cell,track(0)).
position((29,32),cell,track(0)).
position((29,33),cell,track(0)).
position((29,34),cell,track(0)).
position((29,35),cell,track(0)).
position((29,36),cell,track(0)).
position((29,37),cell,track(0)).
position((29,38),cell,track(0)).
position((29,39),cell,track(0)).
position((29,3),cell,track(0)).
position((29,40),cell,track(0)).
position((29,41),cell,track(32800)).
position((29,42),cell,track(0)).
position((29,43),cell,track(0)).
position((29,44),cell,track(0)).
position((29,45),cell,track(0)).
position((29,46),cell,track(0)).
position((29,47),cell,track(0)).
position((29,48),cell,track(0)).
position((29,49),cell,track(0)).
position((29,4),cell,track(0)).
position((29,50),cell,track(0)).
position((29,51),cell,track(0)).
position((29,52),cell,track(0)).
position((29,53),cell,track(0)).
position((29,54),cell,track(0)).
position((29,55),cell,track(0)).
position((29,56),cell,track(0)).
position((29,57),cell,track(0)).
position((29,58),cell,track(0)).
position((29,59),cell,track(0)).
position((29,5),cell,track(0)).
position((29,60),cell,track(0)).
position((29,61),cell,track(0)).
position((29,62),cell,track(0)).
position((29,63),cell,track(0)).
position((29,64),cell,track(0)).
position((29,65),cell,track(0)).
position((29,66),cell,track(0)).
position((29,67),cell,track(0)).
position((29,68),cell,track(16386)).
position((29,69),cell,track(2064)).
position((29,6),cell,track(0)).
position((29,70),cell,track(0)).
position((29,71),cell,track(0)).
position((29,72),cell,track(0)).
position((29,73),cell,track(0)).
position((29,74),cell,track(0)).
position((29,75),cell,track(0)).
position((29,76),cell,track(0)).
position((29,77),cell,track(0)).
position((29,78),cell,track(0)).
position((29,79),cell,track(0)).
position((29,7),cell,track(0)).
position((29,8),cell,track(0)).
position((29,9),cell,track(0)).
position((2,9),cell,track(0)).
position((30,0),cell,track(0)).
position((30,10),cell,track(0)).
position((30,11),cell,track(0)).
position((30,12),cell,track(0)).
position((30,13),cell,track(0)).
position((30,14),cell,track(0)).
position((30,15),cell,track(0)).
position((30,16),cell,track(72)).
position((30,17),cell,track(4608)).
position((30,18),cell,track(0)).
position((30,19),cell,track(0)).
position((30,1),cell,track(0)).
position((30,20),cell,track(0)).
position((30,21),cell,track(0)).
position((30,22),cell,track(32800)).
position((30,23),cell,track(32800)).
position((30,24),cell,track(0)).
position((30,25),cell,track(0)).
position((30,26),cell,track(0)).
position((30,27),cell,track(0)).
position((30,28),cell,track(0)).
position((30,29),cell,track(0)).
position((30,2),cell,track(0)).
position((30,30),cell,track(0)).
position((30,31),cell,track(0)).
position((30,32),cell,track(0)).
position((30,33),cell,track(0)).
position((30,34),cell,track(0)).
position((30,35),cell,track(0)).
position((30,36),cell,track(0)).
position((30,37),cell,track(0)).
position((30,38),cell,track(0)).
position((30,39),cell,track(0)).
position((30,3),cell,track(0)).
position((30,40),cell,track(0)).
position((30,41),cell,track(72)).
position((30,42),cell,track(1025)).
position((30,43),cell,track(1025)).
position((30,44),cell,track(1025)).
position((30,45),cell,track(1025)).
position((30,46),cell,track(1025)).
position((30,47),cell,track(4608)).
position((30,48),cell,track(0)).
position((30,49),cell,track(0)).
position((30,4),cell,track(0)).
position((30,50),cell,track(0)).
position((30,51),cell,track(0)).
position((30,52),cell,track(0)).
position((30,53),cell,track(0)).
position((30,54),cell,track(0)).
position((30,55),cell,track(0)).
position((30,56),cell,track(0)).
position((30,57),cell,track(0)).
position((30,58),cell,track(0)).
position((30,59),cell,track(0)).
position((30,5),cell,track(0)).
position((30,60),cell,track(0)).
position((30,61),cell,track(0)).
position((30,62),cell,track(0)).
position((30,63),cell,track(0)).
position((30,64),cell,track(0)).
position((30,65),cell,track(16386)).
position((30,66),cell,track(1025)).
position((30,67),cell,track(1025)).
position((30,68),cell,track(2064)).
position((30,69),cell,track(0)).
position((30,6),cell,track(0)).
position((30,70),cell,track(0)).
position((30,71),cell,track(0)).
position((30,72),cell,track(0)).
position((30,73),cell,track(0)).
position((30,74),cell,track(0)).
position((30,75),cell,track(0)).
position((30,76),cell,track(0)).
position((30,77),cell,track(0)).
position((30,78),cell,track(0)).
position((30,79),cell,track(0)).
position((30,7),cell,track(0)).
position((30,8),cell,track(0)).
position((30,9),cell,track(0)).
position((3,0),cell,track(0)).
position((3,10),cell,track(0)).
position((31,0),cell,track(0)).
position((31,10),cell,track(0)).
position((31,11),cell,track(0)).
position((31,12),cell,track(0)).
position((31,13),cell,track(0)).
position((31,14),cell,track(0)).
position((31,15),cell,track(0)).
position((31,16),cell,track(0)).
position((31,17),cell,track(72)).
position((31,18),cell,track(1025)).
position((31,19),cell,track(4608)).
position((3,11),cell,track(0)).
position((31,1),cell,track(0)).
position((31,20),cell,track(0)).
position((31,21),cell,track(0)).
position((31,22),cell,track(32800)).
position((31,23),cell,track(32800)).
position((31,24),cell,track(0)).
position((31,25),cell,track(0)).
position((31,26),cell,track(0)).
position((31,27),cell,track(0)).
position((31,28),cell,track(0)).
position((31,29),cell,track(0)).
position((3,12),cell,track(0)).
position((31,2),cell,track(0)).
position((31,30),cell,track(0)).
position((31,31),cell,track(0)).
position((31,32),cell,track(0)).
position((31,33),cell,track(0)).
position((31,34),cell,track(0)).
position((31,35),cell,track(0)).
position((31,36),cell,track(0)).
position((31,37),cell,track(0)).
position((31,38),cell,track(0)).
position((31,39),cell,track(0)).
position((3,13),cell,track(0)).
position((31,3),cell,track(0)).
position((31,40),cell,track(0)).
position((31,41),cell,track(0)).
position((31,42),cell,track(0)).
position((31,43),cell,track(0)).
position((31,44),cell,track(0)).
position((31,45),cell,track(0)).
position((31,46),cell,track(0)).
position((31,47),cell,track(32800)).
position((31,48),cell,track(0)).
position((31,49),cell,track(0)).
position((3,14),cell,track(0)).
position((31,4),cell,track(0)).
position((31,50),cell,track(0)).
position((31,51),cell,track(0)).
position((31,52),cell,track(0)).
position((31,53),cell,track(0)).
position((31,54),cell,track(0)).
position((31,55),cell,track(0)).
position((31,56),cell,track(0)).
position((31,57),cell,track(0)).
position((31,58),cell,track(0)).
position((31,59),cell,track(0)).
position((3,15),cell,track(0)).
position((31,5),cell,track(0)).
position((31,60),cell,track(0)).
position((31,61),cell,track(0)).
position((31,62),cell,track(0)).
position((31,63),cell,track(16386)).
position((31,64),cell,track(1025)).
position((31,65),cell,track(2064)).
position((31,66),cell,track(0)).
position((31,67),cell,track(0)).
position((31,68),cell,track(0)).
position((31,69),cell,track(0)).
position((3,16),cell,track(0)).
position((31,6),cell,track(0)).
position((31,70),cell,track(0)).
position((31,71),cell,track(0)).
position((31,72),cell,track(0)).
position((31,73),cell,track(0)).
position((31,74),cell,track(0)).
position((31,75),cell,track(0)).
position((31,76),cell,track(0)).
position((31,77),cell,track(0)).
position((31,78),cell,track(0)).
position((31,79),cell,track(0)).
position((3,17),cell,track(0)).
position((31,7),cell,track(0)).
position((3,18),cell,track(0)).
position((31,8),cell,track(0)).
position((3,19),cell,track(0)).
position((31,9),cell,track(0)).
position((3,1),cell,track(0)).
position((3,20),cell,track(0)).
position((32,0),cell,track(0)).
position((32,10),cell,track(0)).
position((32,11),cell,track(0)).
position((32,12),cell,track(0)).
position((32,13),cell,track(0)).
position((32,14),cell,track(0)).
position((32,15),cell,track(0)).
position((32,16),cell,track(0)).
position((32,17),cell,track(0)).
position((32,18),cell,track(0)).
position((32,19),cell,track(72)).
position((3,21),cell,track(0)).
position((32,1),cell,track(0)).
position((32,20),cell,track(1025)).
position((32,21),cell,track(4608)).
position((32,22),cell,track(32800)).
position((32,23),cell,track(32800)).
position((32,24),cell,track(0)).
position((32,25),cell,track(0)).
position((32,26),cell,track(0)).
position((32,27),cell,track(0)).
position((32,28),cell,track(0)).
position((32,29),cell,track(0)).
position((3,22),cell,track(0)).
position((32,2),cell,track(0)).
position((32,30),cell,track(0)).
position((32,31),cell,track(0)).
position((32,32),cell,track(0)).
position((32,33),cell,track(0)).
position((32,34),cell,track(0)).
position((32,35),cell,track(0)).
position((32,36),cell,track(0)).
position((32,37),cell,track(0)).
position((32,38),cell,track(0)).
position((32,39),cell,track(0)).
position((3,23),cell,track(0)).
position((32,3),cell,track(0)).
position((32,40),cell,track(0)).
position((32,41),cell,track(0)).
position((32,42),cell,track(0)).
position((32,43),cell,track(0)).
position((32,44),cell,track(0)).
position((32,45),cell,track(0)).
position((32,46),cell,track(0)).
position((32,47),cell,track(32800)).
position((32,48),cell,track(0)).
position((32,49),cell,track(0)).
position((3,24),cell,track(0)).
position((32,4),cell,track(0)).
position((32,50),cell,track(0)).
position((32,51),cell,track(0)).
position((32,52),cell,track(0)).
position((32,53),cell,track(0)).
position((32,54),cell,track(0)).
position((32,55),cell,track(0)).
position((32,56),cell,track(0)).
position((32,57),cell,track(0)).
position((32,58),cell,track(0)).
position((32,59),cell,track(0)).
position((3,25),cell,track(0)).
position((32,5),cell,track(0)).
position((32,60),cell,track(0)).
position((32,61),cell,track(0)).
position((32,62),cell,track(16386)).
position((32,63),cell,track(2064)).
position((32,64),cell,track(0)).
position((32,65),cell,track(0)).
position((32,66),cell,track(0)).
position((32,67),cell,track(0)).
position((32,68),cell,track(0)).
position((32,69),cell,track(0)).
position((3,26),cell,track(0)).
position((32,6),cell,track(0)).
position((32,70),cell,track(0)).
position((32,71),cell,track(0)).
position((32,72),cell,track(0)).
position((32,73),cell,track(0)).
position((32,74),cell,track(0)).
position((32,75),cell,track(0)).
position((32,76),cell,track(0)).
position((32,77),cell,track(0)).
position((32,78),cell,track(0)).
position((32,79),cell,track(0)).
position((3,27),cell,track(0)).
position((32,7),cell,track(0)).
position((3,28),cell,track(0)).
position((32,8),cell,track(0)).
position((3,29),cell,track(0)).
position((32,9),cell,track(0)).
position((3,2),cell,track(0)).
position((3,30),cell,track(0)).
position((33,0),cell,track(0)).
position((33,10),cell,track(0)).
position((33,11),cell,track(0)).
position((33,12),cell,track(0)).
position((33,13),cell,track(0)).
position((33,14),cell,track(0)).
position((33,15),cell,track(0)).
position((33,16),cell,track(0)).
position((33,17),cell,track(0)).
position((33,18),cell,track(0)).
position((33,19),cell,track(0)).
position((3,31),cell,track(0)).
position((33,1),cell,track(0)).
position((33,20),cell,track(0)).
position((33,21),cell,track(32800)).
position((33,22),cell,track(32800)).
position((33,23),cell,track(32800)).
position((33,24),cell,track(0)).
position((33,25),cell,track(0)).
position((33,26),cell,track(0)).
position((33,27),cell,track(0)).
position((33,28),cell,track(0)).
position((33,29),cell,track(0)).
position((3,32),cell,track(0)).
position((33,2),cell,track(0)).
position((33,30),cell,track(0)).
position((33,31),cell,track(0)).
position((33,32),cell,track(0)).
position((33,33),cell,track(0)).
position((33,34),cell,track(0)).
position((33,35),cell,track(0)).
position((33,36),cell,track(0)).
position((33,37),cell,track(0)).
position((33,38),cell,track(0)).
position((33,39),cell,track(0)).
position((3,33),cell,track(0)).
position((33,3),cell,track(0)).
position((33,40),cell,track(0)).
position((33,41),cell,track(0)).
position((33,42),cell,track(0)).
position((33,43),cell,track(0)).
position((33,44),cell,track(0)).
position((33,45),cell,track(0)).
position((33,46),cell,track(0)).
position((33,47),cell,track(32800)).
position((33,48),cell,track(0)).
position((33,49),cell,track(0)).
position((3,34),cell,track(0)).
position((33,4),cell,track(0)).
position((33,50),cell,track(0)).
position((33,51),cell,track(0)).
position((33,52),cell,track(0)).
position((33,53),cell,track(0)).
position((33,54),cell,track(0)).
position((33,55),cell,track(0)).
position((33,56),cell,track(0)).
position((33,57),cell,track(0)).
position((33,58),cell,track(0)).
position((33,59),cell,track(0)).
position((3,35),cell,track(0)).
position((33,5),cell,track(0)).
position((33,60),cell,track(0)).
position((33,61),cell,track(0)).
position((33,62),cell,track(32800)).
position((33,63),cell,track(0)).
position((33,64),cell,track(0)).
position((33,65),cell,track(0)).
position((33,66),cell,track(0)).
position((33,67),cell,track(0)).
position((33,68),cell,track(0)).
position((33,69),cell,track(0)).
position((3,36),cell,track(0)).
position((33,6),cell,track(0)).
position((33,70),cell,track(0)).
position((33,71),cell,track(0)).
position((33,72),cell,track(0)).
position((33,73),cell,track(0)).
position((33,74),cell,track(0)).
position((33,75),cell,track(0)).
position((33,76),cell,track(0)).
position((33,77),cell,track(0)).
position((33,78),cell,track(0)).
position((33,79),cell,track(0)).
position((3,37),cell,track(0)).
position((33,7),cell,track(0)).
position((3,38),cell,track(0)).
position((33,8),cell,track(0)).
position((3,39),cell,track(0)).
position((33,9),cell,track(0)).
position((3,3),cell,track(0)).
position((3,40),cell,track(0)).
position((34,0),cell,track(0)).
position((34,10),cell,track(0)).
position((34,11),cell,track(0)).
position((34,12),cell,track(0)).
position((34,13),cell,track(0)).
position((34,14),cell,track(0)).
position((34,15),cell,track(0)).
position((34,16),cell,track(0)).
position((34,17),cell,track(0)).
position((34,18),cell,track(0)).
position((34,19),cell,track(0)).
position((3,41),cell,track(0)).
position((34,1),cell,track(0)).
position((34,20),cell,track(0)).
position((34,21),cell,track(32800)).
position((34,22),cell,track(32800)).
position((34,23),cell,track(32800)).
position((34,24),cell,track(0)).
position((34,25),cell,track(0)).
position((34,26),cell,track(0)).
position((34,27),cell,track(0)).
position((34,28),cell,track(0)).
position((34,29),cell,track(0)).
position((3,42),cell,track(0)).
position((34,2),cell,track(0)).
position((34,30),cell,track(0)).
position((34,31),cell,track(0)).
position((34,32),cell,track(0)).
position((34,33),cell,track(0)).
position((34,34),cell,track(0)).
position((34,35),cell,track(0)).
position((34,36),cell,track(0)).
position((34,37),cell,track(0)).
position((34,38),cell,track(0)).
position((34,39),cell,track(0)).
position((3,43),cell,track(0)).
position((34,3),cell,track(0)).
position((34,40),cell,track(0)).
position((34,41),cell,track(0)).
position((34,42),cell,track(0)).
position((34,43),cell,track(0)).
position((34,44),cell,track(0)).
position((34,45),cell,track(0)).
position((34,46),cell,track(0)).
position((34,47),cell,track(32800)).
position((34,48),cell,track(0)).
position((34,49),cell,track(0)).
position((3,44),cell,track(0)).
position((34,4),cell,track(0)).
position((34,50),cell,track(0)).
position((34,51),cell,track(0)).
position((34,52),cell,track(0)).
position((34,53),cell,track(0)).
position((34,54),cell,track(0)).
position((34,55),cell,track(0)).
position((34,56),cell,track(0)).
position((34,57),cell,track(0)).
position((34,58),cell,track(0)).
position((34,59),cell,track(0)).
position((3,45),cell,track(0)).
position((34,5),cell,track(0)).
position((34,60),cell,track(0)).
position((34,61),cell,track(0)).
position((34,62),cell,track(32800)).
position((34,63),cell,track(0)).
position((34,64),cell,track(0)).
position((34,65),cell,track(0)).
position((34,66),cell,track(0)).
position((34,67),cell,track(0)).
position((34,68),cell,track(0)).
position((34,69),cell,track(0)).
position((3,46),cell,track(0)).
position((34,6),cell,track(0)).
position((34,70),cell,track(0)).
position((34,71),cell,track(0)).
position((34,72),cell,track(0)).
position((34,73),cell,track(0)).
position((34,74),cell,track(0)).
position((34,75),cell,track(0)).
position((34,76),cell,track(0)).
position((34,77),cell,track(0)).
position((34,78),cell,track(0)).
position((34,79),cell,track(0)).
position((3,47),cell,track(0)).
position((34,7),cell,track(0)).
position((3,48),cell,track(0)).
position((34,8),cell,track(0)).
position((3,49),cell,track(0)).
position((34,9),cell,track(0)).
position((3,4),cell,track(0)).
position((3,50),cell,track(0)).
position((35,0),cell,track(0)).
position((35,10),cell,track(0)).
position((35,11),cell,track(0)).
position((35,12),cell,track(0)).
position((35,13),cell,track(0)).
position((35,14),cell,track(0)).
position((35,15),cell,track(0)).
position((35,16),cell,track(0)).
position((35,17),cell,track(0)).
position((35,18),cell,track(0)).
position((35,19),cell,track(0)).
position((3,51),cell,track(0)).
position((35,1),cell,track(0)).
position((35,20),cell,track(0)).
position((35,21),cell,track(32800)).
position((35,22),cell,track(32800)).
position((35,23),cell,track(32800)).
position((35,24),cell,track(0)).
position((35,25),cell,track(0)).
position((35,26),cell,track(0)).
position((35,27),cell,track(0)).
position((35,28),cell,track(0)).
position((35,29),cell,track(0)).
position((3,52),cell,track(0)).
position((35,2),cell,track(0)).
position((35,30),cell,track(0)).
position((35,31),cell,track(0)).
position((35,32),cell,track(0)).
position((35,33),cell,track(0)).
position((35,34),cell,track(0)).
position((35,35),cell,track(0)).
position((35,36),cell,track(0)).
position((35,37),cell,track(0)).
position((35,38),cell,track(0)).
position((35,39),cell,track(0)).
position((3,53),cell,track(0)).
position((35,3),cell,track(0)).
position((35,40),cell,track(0)).
position((35,41),cell,track(0)).
position((35,42),cell,track(0)).
position((35,43),cell,track(0)).
position((35,44),cell,track(0)).
position((35,45),cell,track(0)).
position((35,46),cell,track(0)).
position((35,47),cell,track(32800)).
position((35,48),cell,track(0)).
position((35,49),cell,track(0)).
position((3,54),cell,track(0)).
position((35,4),cell,track(0)).
position((35,50),cell,track(0)).
position((35,51),cell,track(0)).
position((35,52),cell,track(0)).
position((35,53),cell,track(0)).
position((35,54),cell,track(0)).
position((35,55),cell,track(0)).
position((35,56),cell,track(0)).
position((35,57),cell,track(0)).
position((35,58),cell,track(0)).
position((35,59),cell,track(0)).
position((3,55),cell,track(0)).
position((35,5),cell,track(0)).
position((35,60),cell,track(16386)).
position((35,61),cell,track(1025)).
position((35,62),cell,track(2064)).
position((35,63),cell,track(0)).
position((35,64),cell,track(0)).
position((35,65),cell,track(0)).
position((35,66),cell,track(0)).
position((35,67),cell,track(0)).
position((35,68),cell,track(0)).
position((35,69),cell,track(0)).
position((3,56),cell,track(0)).
position((35,6),cell,track(0)).
position((35,70),cell,track(0)).
position((35,71),cell,track(0)).
position((35,72),cell,track(0)).
position((35,73),cell,track(0)).
position((35,74),cell,track(0)).
position((35,75),cell,track(0)).
position((35,76),cell,track(0)).
position((35,77),cell,track(0)).
position((35,78),cell,track(0)).
position((35,79),cell,track(0)).
position((3,57),cell,track(0)).
position((35,7),cell,track(0)).
position((3,58),cell,track(0)).
position((35,8),cell,track(0)).
position((3,59),cell,track(0)).
position((35,9),cell,track(0)).
position((3,5),cell,track(0)).
position((3,60),cell,track(0)).
position((36,0),cell,track(0)).
position((36,10),cell,track(0)).
position((36,11),cell,track(0)).
position((36,12),cell,track(0)).
position((36,13),cell,track(0)).
position((36,14),cell,track(0)).
position((36,15),cell,track(0)).
position((36,16),cell,track(0)).
position((36,17),cell,track(0)).
position((36,18),cell,track(0)).
position((36,19),cell,track(0)).
position((3,61),cell,track(0)).
position((36,1),cell,track(0)).
position((36,20),cell,track(0)).
position((36,21),cell,track(32800)).
position((36,22),cell,track(32800)).
position((36,23),cell,track(32800)).
position((36,24),cell,track(0)).
position((36,25),cell,track(0)).
position((36,26),cell,track(0)).
position((36,27),cell,track(0)).
position((36,28),cell,track(0)).
position((36,29),cell,track(0)).
position((3,62),cell,track(0)).
position((36,2),cell,track(0)).
position((36,30),cell,track(0)).
position((36,31),cell,track(0)).
position((36,32),cell,track(0)).
position((36,33),cell,track(0)).
position((36,34),cell,track(0)).
position((36,35),cell,track(0)).
position((36,36),cell,track(0)).
position((36,37),cell,track(0)).
position((36,38),cell,track(0)).
position((36,39),cell,track(0)).
position((3,63),cell,track(0)).
position((36,3),cell,track(0)).
position((36,40),cell,track(0)).
position((36,41),cell,track(0)).
position((36,42),cell,track(0)).
position((36,43),cell,track(0)).
position((36,44),cell,track(0)).
position((36,45),cell,track(0)).
position((36,46),cell,track(0)).
position((36,47),cell,track(32800)).
position((36,48),cell,track(0)).
position((36,49),cell,track(0)).
position((3,64),cell,track(0)).
position((36,4),cell,track(0)).
position((36,50),cell,track(0)).
position((36,51),cell,track(0)).
position((36,52),cell,track(0)).
position((36,53),cell,track(0)).
position((36,54),cell,track(0)).
position((36,55),cell,track(0)).
position((36,56),cell,track(0)).
position((36,57),cell,track(0)).
position((36,58),cell,track(16386)).
position((36,59),cell,track(1025)).
position((3,65),cell,track(0)).
position((36,5),cell,track(0)).
position((36,60),cell,track(2064)).
position((36,61),cell,track(0)).
position((36,62),cell,track(0)).
position((36,63),cell,track(0)).
position((36,64),cell,track(0)).
position((36,65),cell,track(0)).
position((36,66),cell,track(0)).
position((36,67),cell,track(0)).
position((36,68),cell,track(0)).
position((36,69),cell,track(0)).
position((3,66),cell,track(0)).
position((36,6),cell,track(0)).
position((36,70),cell,track(0)).
position((36,71),cell,track(0)).
position((36,72),cell,track(0)).
position((36,73),cell,track(0)).
position((36,74),cell,track(0)).
position((36,75),cell,track(0)).
position((36,76),cell,track(0)).
position((36,77),cell,track(0)).
position((36,78),cell,track(0)).
position((36,79),cell,track(0)).
position((3,67),cell,track(0)).
position((36,7),cell,track(0)).
position((3,68),cell,track(0)).
position((36,8),cell,track(0)).
position((3,69),cell,track(0)).
position((36,9),cell,track(0)).
position((3,6),cell,track(0)).
position((3,70),cell,track(0)).
position((37,0),cell,track(0)).
position((37,10),cell,track(0)).
position((37,11),cell,track(0)).
position((37,12),cell,track(0)).
position((37,13),cell,track(0)).
position((37,14),cell,track(0)).
position((37,15),cell,track(0)).
position((37,16),cell,track(0)).
position((37,17),cell,track(0)).
position((37,18),cell,track(0)).
position((37,19),cell,track(0)).
position((3,71),cell,track(0)).
position((37,1),cell,track(0)).
position((37,20),cell,track(0)).
position((37,21),cell,track(49186)).
position((37,22),cell,track(3089)).
position((37,23),cell,track(2064)).
position((37,24),cell,track(0)).
position((37,25),cell,track(0)).
position((37,26),cell,track(0)).
position((37,27),cell,track(0)).
position((37,28),cell,track(0)).
position((37,29),cell,track(0)).
position((3,72),cell,track(0)).
position((37,2),cell,track(0)).
position((37,30),cell,track(0)).
position((37,31),cell,track(0)).
position((37,32),cell,track(0)).
position((37,33),cell,track(0)).
position((37,34),cell,track(0)).
position((37,35),cell,track(0)).
position((37,36),cell,track(0)).
position((37,37),cell,track(0)).
position((37,38),cell,track(0)).
position((37,39),cell,track(0)).
position((3,73),cell,track(0)).
position((37,3),cell,track(0)).
position((37,40),cell,track(0)).
position((37,41),cell,track(0)).
position((37,42),cell,track(0)).
position((37,43),cell,track(0)).
position((37,44),cell,track(0)).
position((37,45),cell,track(0)).
position((37,46),cell,track(0)).
position((37,47),cell,track(32800)).
position((37,48),cell,track(0)).
position((37,49),cell,track(0)).
position((3,74),cell,track(0)).
position((37,4),cell,track(0)).
position((37,50),cell,track(0)).
position((37,51),cell,track(0)).
position((37,52),cell,track(0)).
position((37,53),cell,track(0)).
position((37,54),cell,track(0)).
position((37,55),cell,track(0)).
position((37,56),cell,track(0)).
position((37,57),cell,track(0)).
position((37,58),cell,track(32800)).
position((37,59),cell,track(0)).
position((3,75),cell,track(0)).
position((37,5),cell,track(0)).
position((37,60),cell,track(0)).
position((37,61),cell,track(0)).
position((37,62),cell,track(0)).
position((37,63),cell,track(0)).
position((37,64),cell,track(0)).
position((37,65),cell,track(0)).
position((37,66),cell,track(0)).
position((37,67),cell,track(0)).
position((37,68),cell,track(0)).
position((37,69),cell,track(0)).
position((3,76),cell,track(0)).
position((37,6),cell,track(0)).
position((37,70),cell,track(0)).
position((37,71),cell,track(0)).
position((37,72),cell,track(0)).
position((37,73),cell,track(0)).
position((37,74),cell,track(0)).
position((37,75),cell,track(0)).
position((37,76),cell,track(0)).
position((37,77),cell,track(0)).
position((37,78),cell,track(0)).
position((37,79),cell,track(0)).
position((3,77),cell,track(0)).
position((37,7),cell,track(0)).
position((3,78),cell,track(0)).
position((37,8),cell,track(0)).
position((3,79),cell,track(0)).
position((37,9),cell,track(0)).
position((3,7),cell,track(0)).
position((38,0),cell,track(0)).
position((38,10),cell,track(0)).
position((38,11),cell,track(0)).
position((38,12),cell,track(0)).
position((38,13),cell,track(0)).
position((38,14),cell,track(0)).
position((38,15),cell,track(0)).
position((38,16),cell,track(0)).
position((38,17),cell,track(0)).
position((38,18),cell,track(0)).
position((38,19),cell,track(0)).
position((38,1),cell,track(0)).
position((38,20),cell,track(0)).
position((38,21),cell,track(32800)).
position((38,22),cell,track(0)).
position((38,23),cell,track(0)).
position((38,24),cell,track(0)).
position((38,25),cell,track(0)).
position((38,26),cell,track(0)).
position((38,27),cell,track(0)).
position((38,28),cell,track(0)).
position((38,29),cell,track(0)).
position((38,2),cell,track(0)).
position((38,30),cell,track(0)).
position((38,31),cell,track(0)).
position((38,32),cell,track(0)).
position((38,33),cell,track(0)).
position((38,34),cell,track(0)).
position((38,35),cell,track(0)).
position((38,36),cell,track(0)).
position((38,37),cell,track(0)).
position((38,38),cell,track(0)).
position((38,39),cell,track(0)).
position((38,3),cell,track(0)).
position((38,40),cell,track(0)).
position((38,41),cell,track(0)).
position((38,42),cell,track(0)).
position((38,43),cell,track(0)).
position((38,44),cell,track(0)).
position((38,45),cell,track(0)).
position((38,46),cell,track(0)).
position((38,47),cell,track(32800)).
position((38,48),cell,track(0)).
position((38,49),cell,track(0)).
position((38,4),cell,track(0)).
position((38,50),cell,track(0)).
position((38,51),cell,track(0)).
position((38,52),cell,track(0)).
position((38,53),cell,track(0)).
position((38,54),cell,track(0)).
position((38,55),cell,track(0)).
position((38,56),cell,track(0)).
position((38,57),cell,track(0)).
position((38,58),cell,track(32800)).
position((38,59),cell,track(0)).
position((38,5),cell,track(0)).
position((38,60),cell,track(0)).
position((38,61),cell,track(0)).
position((38,62),cell,track(0)).
position((38,63),cell,track(0)).
position((38,64),cell,track(0)).
position((38,65),cell,track(0)).
position((38,66),cell,track(0)).
position((38,67),cell,track(0)).
position((38,68),cell,track(0)).
position((38,69),cell,track(0)).
position((38,6),cell,track(0)).
position((38,70),cell,track(0)).
position((38,71),cell,track(0)).
position((38,72),cell,track(0)).
position((38,73),cell,track(0)).
position((38,74),cell,track(0)).
position((38,75),cell,track(0)).
position((38,76),cell,track(0)).
position((38,77),cell,track(0)).
position((38,78),cell,track(0)).
position((38,79),cell,track(0)).
position((38,7),cell,track(0)).
position((38,8),cell,track(0)).
position((38,9),cell,track(0)).
position((3,8),cell,track(0)).
position((39,0),cell,track(0)).
position((39,10),cell,track(0)).
position((39,11),cell,track(0)).
position((39,12),cell,track(0)).
position((39,13),cell,track(0)).
position((39,14),cell,track(0)).
position((39,15),cell,track(0)).
position((39,16),cell,track(0)).
position((39,17),cell,track(0)).
position((39,18),cell,track(0)).
position((39,19),cell,track(0)).
position((39,1),cell,track(0)).
position((39,20),cell,track(0)).
position((39,21),cell,track(32800)).
position((39,22),cell,track(0)).
position((39,23),cell,track(0)).
position((39,24),cell,track(0)).
position((39,25),cell,track(0)).
position((39,26),cell,track(0)).
position((39,27),cell,track(0)).
position((39,28),cell,track(0)).
position((39,29),cell,track(0)).
position((39,2),cell,track(0)).
position((39,30),cell,track(0)).
position((39,31),cell,track(0)).
position((39,32),cell,track(0)).
position((39,33),cell,track(0)).
position((39,34),cell,track(0)).
position((39,35),cell,track(0)).
position((39,36),cell,track(0)).
position((39,37),cell,track(0)).
position((39,38),cell,track(0)).
position((39,39),cell,track(0)).
position((39,3),cell,track(0)).
position((39,40),cell,track(0)).
position((39,41),cell,track(0)).
position((39,42),cell,track(0)).
position((39,43),cell,track(0)).
position((39,44),cell,track(0)).
position((39,45),cell,track(0)).
position((39,46),cell,track(0)).
position((39,47),cell,track(32800)).
position((39,48),cell,track(0)).
position((39,49),cell,track(0)).
position((39,4),cell,track(0)).
position((39,50),cell,track(0)).
position((39,51),cell,track(0)).
position((39,52),cell,track(0)).
position((39,53),cell,track(0)).
position((39,54),cell,track(0)).
position((39,55),cell,track(0)).
position((39,56),cell,track(0)).
position((39,57),cell,track(0)).
position((39,58),cell,track(32800)).
position((39,59),cell,track(0)).
position((39,5),cell,track(0)).
position((39,60),cell,track(0)).
position((39,61),cell,track(0)).
position((39,62),cell,track(0)).
position((39,63),cell,track(0)).
position((39,64),cell,track(0)).
position((39,65),cell,track(0)).
position((39,66),cell,track(0)).
position((39,67),cell,track(0)).
position((39,68),cell,track(0)).
position((39,69),cell,track(0)).
position((39,6),cell,track(0)).
position((39,70),cell,track(0)).
position((39,71),cell,track(0)).
position((39,72),cell,track(0)).
position((39,73),cell,track(0)).
position((39,74),cell,track(0)).
position((39,75),cell,track(0)).
position((39,76),cell,track(0)).
position((39,77),cell,track(0)).
position((39,78),cell,track(0)).
position((39,79),cell,track(0)).
position((39,7),cell,track(0)).
position((39,8),cell,track(0)).
position((39,9),cell,track(0)).
position((3,9),cell,track(0)).
position((40,0),cell,track(0)).
position((40,10),cell,track(0)).
position((40,11),cell,track(0)).
position((40,12),cell,track(0)).
position((40,13),cell,track(0)).
position((40,14),cell,track(0)).
position((40,15),cell,track(0)).
position((40,16),cell,track(0)).
position((40,17),cell,track(0)).
position((40,18),cell,track(0)).
position((40,19),cell,track(0)).
position((40,1),cell,track(0)).
position((40,20),cell,track(0)).
position((40,21),cell,track(32800)).
position((40,22),cell,track(0)).
position((40,23),cell,track(0)).
position((40,24),cell,track(0)).
position((40,25),cell,track(0)).
position((40,26),cell,track(0)).
position((40,27),cell,track(0)).
position((40,28),cell,track(0)).
position((40,29),cell,track(0)).
position((40,2),cell,track(0)).
position((40,30),cell,track(0)).
position((40,31),cell,track(0)).
position((40,32),cell,track(0)).
position((40,33),cell,track(0)).
position((40,34),cell,track(0)).
position((40,35),cell,track(0)).
position((40,36),cell,track(0)).
position((40,37),cell,track(0)).
position((40,38),cell,track(0)).
position((40,39),cell,track(0)).
position((40,3),cell,track(0)).
position((40,40),cell,track(0)).
position((40,41),cell,track(0)).
position((40,42),cell,track(0)).
position((40,43),cell,track(0)).
position((40,44),cell,track(0)).
position((40,45),cell,track(0)).
position((40,46),cell,track(0)).
position((40,47),cell,track(32800)).
position((40,48),cell,track(0)).
position((40,49),cell,track(0)).
position((40,4),cell,track(0)).
position((40,50),cell,track(0)).
position((40,51),cell,track(0)).
position((40,52),cell,track(0)).
position((40,53),cell,track(0)).
position((40,54),cell,track(0)).
position((40,55),cell,track(0)).
position((40,56),cell,track(0)).
position((40,57),cell,track(0)).
position((40,58),cell,track(32800)).
position((40,59),cell,track(0)).
position((40,5),cell,track(0)).
position((40,60),cell,track(0)).
position((40,61),cell,track(0)).
position((40,62),cell,track(0)).
position((40,63),cell,track(0)).
position((40,64),cell,track(0)).
position((40,65),cell,track(0)).
position((40,66),cell,track(0)).
position((40,67),cell,track(0)).
position((40,68),cell,track(0)).
position((40,69),cell,track(0)).
position((40,6),cell,track(0)).
position((40,70),cell,track(0)).
position((40,71),cell,track(0)).
position((40,72),cell,track(0)).
position((40,73),cell,track(0)).
position((40,74),cell,track(0)).
position((40,75),cell,track(0)).
position((40,76),cell,track(0)).
position((40,77),cell,track(0)).
position((40,78),cell,track(0)).
position((40,79),cell,track(0)).
position((40,7),cell,track(0)).
position((40,8),cell,track(0)).
position((40,9),cell,track(0)).
position((4,0),cell,track(0)).
position((4,10),cell,track(0)).
position((41,0),cell,track(0)).
position((41,10),cell,track(0)).
position((41,11),cell,track(0)).
position((41,12),cell,track(0)).
position((41,13),cell,track(0)).
position((41,14),cell,track(0)).
position((41,15),cell,track(0)).
position((41,16),cell,track(0)).
position((41,17),cell,track(0)).
position((41,18),cell,track(0)).
position((41,19),cell,track(0)).
position((4,11),cell,track(0)).
position((41,1),cell,track(0)).
position((41,20),cell,track(0)).
position((41,21),cell,track(32800)).
position((41,22),cell,track(0)).
position((41,23),cell,track(0)).
position((41,24),cell,track(0)).
position((41,25),cell,track(16386)).
position((41,26),cell,track(1025)).
position((41,26),start,train(0)).
position((41,27),cell,track(4608)).
position((41,28),cell,track(0)).
position((41,29),cell,track(0)).
position((4,12),cell,track(0)).
position((41,2),cell,track(0)).
position((41,30),cell,track(0)).
position((41,31),cell,track(0)).
position((41,32),cell,track(0)).
position((41,33),cell,track(0)).
position((41,34),cell,track(0)).
position((41,35),cell,track(0)).
position((41,36),cell,track(0)).
position((41,37),cell,track(0)).
position((41,38),cell,track(0)).
position((41,39),cell,track(0)).
position((4,13),cell,track(0)).
position((41,3),cell,track(0)).
position((41,40),cell,track(0)).
position((41,41),cell,track(0)).
position((41,42),cell,track(0)).
position((41,43),cell,track(0)).
position((41,44),cell,track(0)).
position((41,45),cell,track(0)).
position((41,46),cell,track(0)).
position((41,47),cell,track(32800)).
position((41,48),cell,track(0)).
position((41,49),cell,track(0)).
position((4,14),cell,track(0)).
position((41,4),cell,track(0)).
position((41,50),cell,track(0)).
position((41,51),cell,track(0)).
position((41,52),cell,track(0)).
position((41,53),cell,track(0)).
position((41,54),cell,track(0)).
position((41,55),cell,track(0)).
position((41,56),cell,track(0)).
position((41,57),cell,track(0)).
position((41,58),cell,track(32800)).
position((41,59),cell,track(0)).
position((4,15),cell,track(0)).
position((41,5),cell,track(0)).
position((41,60),cell,track(0)).
position((41,61),cell,track(0)).
position((41,62),cell,track(0)).
position((41,63),cell,track(0)).
position((41,64),cell,track(0)).
position((41,65),cell,track(0)).
position((41,66),cell,track(0)).
position((41,67),cell,track(0)).
position((41,68),cell,track(0)).
position((41,69),cell,track(0)).
position((4,16),cell,track(0)).
position((41,6),cell,track(0)).
position((41,70),cell,track(0)).
position((41,71),cell,track(0)).
position((41,72),cell,track(0)).
position((41,73),cell,track(0)).
position((41,74),cell,track(0)).
position((41,75),cell,track(0)).
position((41,76),cell,track(0)).
position((41,77),cell,track(0)).
position((41,78),cell,track(0)).
position((41,79),cell,track(0)).
position((4,17),cell,track(0)).
position((41,7),cell,track(0)).
position((4,18),cell,track(0)).
position((41,8),cell,track(0)).
position((4,19),cell,track(0)).
position((41,9),cell,track(0)).
position((4,1),cell,track(0)).
position((4,20),cell,track(0)).
position((42,0),cell,track(0)).
position((42,10),cell,track(0)).
position((42,11),cell,track(0)).
position((42,12),cell,track(0)).
position((42,13),cell,track(0)).
position((42,14),cell,track(0)).
position((42,15),cell,track(0)).
position((42,16),cell,track(0)).
position((42,17),cell,track(0)).
position((42,18),cell,track(0)).
position((42,19),cell,track(0)).
position((4,21),cell,track(0)).
position((42,1),cell,track(0)).
position((42,20),cell,track(0)).
position((42,21),cell,track(32872)).
position((42,22),cell,track(1025)).
position((42,23),cell,track(5633)).
position((42,24),cell,track(17411)).
position((42,25),cell,track(3089)).
position((42,26),cell,track(1025)).
position((42,27),cell,track(1097)).
position((42,28),cell,track(5633)).
position((42,29),cell,track(17411)).
position((4,22),cell,track(0)).
position((42,2),cell,track(0)).
position((42,30),cell,track(1025)).
position((42,31),cell,track(1025)).
position((42,32),cell,track(1025)).
position((42,33),cell,track(4608)).
position((42,34),cell,track(0)).
position((42,35),cell,track(0)).
position((42,36),cell,track(0)).
position((42,37),cell,track(0)).
position((42,38),cell,track(0)).
position((42,39),cell,track(0)).
position((4,23),cell,track(0)).
position((42,3),cell,track(0)).
position((42,40),cell,track(0)).
position((42,41),cell,track(0)).
position((42,42),cell,track(0)).
position((42,43),cell,track(0)).
position((42,44),cell,track(0)).
position((42,45),cell,track(0)).
position((42,46),cell,track(0)).
position((42,47),cell,track(32800)).
position((42,48),cell,track(0)).
position((42,49),cell,track(0)).
position((4,24),cell,track(0)).
position((42,4),cell,track(0)).
position((42,50),cell,track(0)).
position((42,51),cell,track(0)).
position((42,52),cell,track(0)).
position((42,53),cell,track(0)).
position((42,54),cell,track(0)).
position((42,55),cell,track(0)).
position((42,56),cell,track(0)).
position((42,57),cell,track(0)).
position((42,58),cell,track(32800)).
position((42,59),cell,track(0)).
position((4,25),cell,track(0)).
position((42,5),cell,track(0)).
position((42,60),cell,track(0)).
position((42,61),cell,track(0)).
position((42,62),cell,track(0)).
position((42,63),cell,track(0)).
position((42,64),cell,track(0)).
position((42,65),cell,track(0)).
position((42,66),cell,track(0)).
position((42,67),cell,track(0)).
position((42,68),cell,track(0)).
position((42,69),cell,track(0)).
position((4,26),cell,track(0)).
position((42,6),cell,track(0)).
position((42,70),cell,track(0)).
position((42,71),cell,track(0)).
position((42,72),cell,track(0)).
position((42,73),cell,track(0)).
position((42,74),cell,track(0)).
position((42,75),cell,track(0)).
position((42,76),cell,track(0)).
position((42,77),cell,track(0)).
position((42,78),cell,track(0)).
position((42,79),cell,track(0)).
position((4,27),cell,track(0)).
position((42,7),cell,track(0)).
position((4,28),cell,track(0)).
position((42,8),cell,track(0)).
position((4,29),cell,track(0)).
position((42,9),cell,track(0)).
position((4,2),cell,track(0)).
position((4,30),cell,track(0)).
position((43,0),cell,track(0)).
position((43,10),cell,track(0)).
position((43,11),cell,track(0)).
position((43,12),cell,track(0)).
position((43,13),cell,track(0)).
position((43,14),cell,track(0)).
position((43,15),cell,track(0)).
position((43,16),cell,track(0)).
position((43,17),cell,track(0)).
position((43,18),cell,track(0)).
position((43,19),cell,track(0)).
position((4,31),cell,track(0)).
position((43,1),cell,track(0)).
position((43,20),cell,track(0)).
position((43,21),cell,track(72)).
position((43,22),cell,track(1025)).
position((43,23),cell,track(1097)).
position((43,24),cell,track(3089)).
position((43,25),cell,track(5633)).
position((43,26),cell,track(1025)).
position((43,27),cell,track(17411)).
position((43,28),cell,track(1097)).
position((43,29),cell,track(3089)).
position((4,32),cell,track(0)).
position((43,2),cell,track(0)).
position((43,30),cell,track(1025)).
position((43,31),cell,track(5633)).
position((43,32),cell,track(4608)).
position((43,33),cell,track(72)).
position((43,34),cell,track(4608)).
position((43,35),cell,track(0)).
position((43,36),cell,track(0)).
position((43,37),cell,track(0)).
position((43,38),cell,track(0)).
position((43,39),cell,track(0)).
position((4,33),cell,track(0)).
position((43,3),cell,track(0)).
position((43,40),cell,track(0)).
position((43,41),cell,track(0)).
position((43,42),cell,track(0)).
position((43,43),cell,track(0)).
position((43,44),cell,track(0)).
position((43,45),cell,track(0)).
position((43,46),cell,track(0)).
position((43,47),cell,track(32800)).
position((43,48),cell,track(0)).
position((43,49),cell,track(0)).
position((4,34),cell,track(0)).
position((43,4),cell,track(0)).
position((43,50),cell,track(0)).
position((43,51),cell,track(0)).
position((43,52),cell,track(0)).
position((43,53),cell,track(0)).
position((43,54),cell,track(0)).
position((43,55),cell,track(0)).
position((43,56),cell,track(0)).
position((43,57),cell,track(16386)).
position((43,58),cell,track(2064)).
position((43,59),cell,track(0)).
position((4,35),cell,track(0)).
position((43,5),cell,track(0)).
position((43,60),cell,track(0)).
position((43,61),cell,track(0)).
position((43,62),cell,track(0)).
position((43,63),cell,track(0)).
position((43,64),cell,track(0)).
position((43,65),cell,track(0)).
position((43,66),cell,track(0)).
position((43,67),cell,track(0)).
position((43,68),cell,track(0)).
position((43,69),cell,track(0)).
position((4,36),cell,track(0)).
position((43,6),cell,track(0)).
position((43,70),cell,track(0)).
position((43,71),cell,track(0)).
position((43,72),cell,track(0)).
position((43,73),cell,track(0)).
position((43,74),cell,track(0)).
position((43,75),cell,track(0)).
position((43,76),cell,track(0)).
position((43,77),cell,track(0)).
position((43,78),cell,track(0)).
position((43,79),cell,track(0)).
position((4,37),cell,track(0)).
position((43,7),cell,track(0)).
position((4,38),cell,track(0)).
position((43,8),cell,track(0)).
position((4,39),cell,track(0)).
position((43,9),cell,track(0)).
position((4,3),cell,track(0)).
position((4,40),cell,track(0)).
position((44,0),cell,track(0)).
position((44,10),cell,track(0)).
position((44,11),cell,track(0)).
position((44,12),cell,track(0)).
position((44,13),cell,track(0)).
position((44,14),cell,track(0)).
position((44,15),cell,track(0)).
position((44,16),cell,track(0)).
position((44,17),cell,track(0)).
position((44,18),cell,track(0)).
position((44,19),cell,track(0)).
position((4,41),cell,track(0)).
position((44,1),cell,track(0)).
position((44,20),cell,track(0)).
position((44,21),cell,track(0)).
position((44,22),cell,track(0)).
position((44,23),cell,track(0)).
position((44,24),cell,track(0)).
position((44,25),cell,track(72)).
position((44,26),cell,track(1025)).
position((44,27),cell,track(2064)).
position((44,28),cell,track(0)).
position((44,29),cell,track(0)).
position((4,42),cell,track(0)).
position((44,2),cell,track(0)).
position((44,30),cell,track(0)).
position((44,31),cell,track(32872)).
position((44,32),cell,track(33825)).
position((44,33),cell,track(1025)).
position((44,34),cell,track(33825)).
position((44,35),cell,track(1025)).
position((44,36),cell,track(4608)).
position((44,37),cell,track(0)).
position((44,38),cell,track(0)).
position((44,39),cell,track(0)).
position((4,43),cell,track(0)).
position((44,3),cell,track(0)).
position((44,40),cell,track(0)).
position((44,41),cell,track(0)).
position((44,42),cell,track(0)).
position((44,43),cell,track(0)).
position((44,44),cell,track(0)).
position((44,45),cell,track(0)).
position((44,46),cell,track(0)).
position((44,47),cell,track(32800)).
position((44,48),cell,track(0)).
position((44,49),cell,track(0)).
position((4,44),cell,track(0)).
position((44,4),cell,track(0)).
position((44,50),cell,track(0)).
position((44,51),cell,track(0)).
position((44,52),cell,track(0)).
position((44,53),cell,track(0)).
position((44,54),cell,track(0)).
position((44,55),cell,track(0)).
position((44,56),cell,track(0)).
position((44,57),cell,track(32800)).
position((44,58),cell,track(0)).
position((44,59),cell,track(0)).
position((4,45),cell,track(0)).
position((44,5),cell,track(0)).
position((44,60),cell,track(0)).
position((44,61),cell,track(0)).
position((44,62),cell,track(0)).
position((44,63),cell,track(0)).
position((44,64),cell,track(0)).
position((44,65),cell,track(0)).
position((44,66),cell,track(0)).
position((44,67),cell,track(0)).
position((44,68),cell,track(0)).
position((44,69),cell,track(0)).
position((4,46),cell,track(0)).
position((44,6),cell,track(0)).
position((44,70),cell,track(0)).
position((44,71),cell,track(0)).
position((44,72),cell,track(0)).
position((44,73),cell,track(0)).
position((44,74),cell,track(0)).
position((44,75),cell,track(0)).
position((44,76),cell,track(0)).
position((44,77),cell,track(0)).
position((44,78),cell,track(0)).
position((44,79),cell,track(0)).
position((4,47),cell,track(0)).
position((44,7),cell,track(0)).
position((4,48),cell,track(0)).
position((44,8),cell,track(0)).
position((4,49),cell,track(0)).
position((44,9),cell,track(0)).
position((4,4),cell,track(0)).
position((4,50),cell,track(0)).
position((45,0),cell,track(0)).
position((45,10),cell,track(0)).
position((45,11),cell,track(0)).
position((45,12),cell,track(0)).
position((45,13),cell,track(0)).
position((45,14),cell,track(0)).
position((45,15),cell,track(0)).
position((45,16),cell,track(0)).
position((45,17),cell,track(0)).
position((45,18),cell,track(0)).
position((45,19),cell,track(0)).
position((4,51),cell,track(0)).
position((45,1),cell,track(0)).
position((45,20),cell,track(0)).
position((45,21),cell,track(0)).
position((45,22),cell,track(0)).
position((45,23),cell,track(0)).
position((45,24),cell,track(0)).
position((45,25),cell,track(0)).
position((45,26),cell,track(0)).
position((45,27),cell,track(0)).
position((45,28),cell,track(0)).
position((45,29),cell,track(0)).
position((4,52),cell,track(0)).
position((45,2),cell,track(0)).
position((45,30),cell,track(0)).
position((45,31),cell,track(32872)).
position((45,32),cell,track(52275)).
position((45,33),cell,track(4608)).
position((45,34),cell,track(72)).
position((45,35),cell,track(4608)).
position((45,36),cell,track(32800)).
position((45,37),cell,track(0)).
position((45,38),cell,track(0)).
position((45,39),cell,track(0)).
position((4,53),cell,track(0)).
position((45,3),cell,track(0)).
position((45,40),cell,track(0)).
position((45,41),cell,track(0)).
position((45,42),cell,track(0)).
position((45,43),cell,track(0)).
position((45,44),cell,track(0)).
position((45,45),cell,track(0)).
position((45,46),cell,track(0)).
position((45,47),cell,track(72)).
position((45,48),cell,track(4608)).
position((45,49),cell,track(0)).
position((4,54),cell,track(0)).
position((45,4),cell,track(0)).
position((45,50),cell,track(0)).
position((45,51),cell,track(0)).
position((45,52),cell,track(0)).
position((45,53),cell,track(0)).
position((45,54),cell,track(0)).
position((45,55),cell,track(0)).
position((45,56),cell,track(0)).
position((45,57),cell,track(32800)).
position((45,58),cell,track(0)).
position((45,59),cell,track(0)).
position((4,55),cell,track(0)).
position((45,5),cell,track(0)).
position((45,60),cell,track(0)).
position((45,61),cell,track(0)).
position((45,62),cell,track(0)).
position((45,63),cell,track(0)).
position((45,64),cell,track(0)).
position((45,65),cell,track(0)).
position((45,66),cell,track(0)).
position((45,67),cell,track(0)).
position((45,68),cell,track(0)).
position((45,69),cell,track(0)).
position((4,56),cell,track(0)).
position((45,6),cell,track(0)).
position((45,70),cell,track(0)).
position((45,71),cell,track(0)).
position((45,72),cell,track(0)).
position((45,73),cell,track(0)).
position((45,74),cell,track(0)).
position((45,75),cell,track(0)).
position((45,76),cell,track(0)).
position((45,77),cell,track(0)).
position((45,78),cell,track(0)).
position((45,79),cell,track(0)).
position((4,57),cell,track(0)).
position((45,7),cell,track(0)).
position((4,58),cell,track(0)).
position((45,8),cell,track(0)).
position((4,59),cell,track(0)).
position((45,9),cell,track(0)).
position((4,5),cell,track(0)).
position((4,60),cell,track(0)).
position((46,0),cell,track(0)).
position((46,10),cell,track(0)).
position((46,11),cell,track(0)).
position((46,12),cell,track(0)).
position((46,13),cell,track(0)).
position((46,14),cell,track(0)).
position((46,15),cell,track(0)).
position((46,16),cell,track(0)).
position((46,17),cell,track(0)).
position((46,18),cell,track(0)).
position((46,19),cell,track(0)).
position((4,61),cell,track(0)).
position((46,1),cell,track(0)).
position((46,20),cell,track(0)).
position((46,21),cell,track(0)).
position((46,22),cell,track(0)).
position((46,23),cell,track(0)).
position((46,24),cell,track(0)).
position((46,25),cell,track(0)).
position((46,26),cell,track(0)).
position((46,27),cell,track(0)).
position((46,28),cell,track(0)).
position((46,29),cell,track(0)).
position((4,62),cell,track(0)).
position((46,2),cell,track(0)).
position((46,30),cell,track(0)).
position((46,31),cell,track(32800)).
position((46,32),cell,track(32800)).
position((46,33),cell,track(32800)).
position((46,34),cell,track(0)).
position((46,35),cell,track(32800)).
position((46,36),cell,track(32800)).
position((46,37),cell,track(0)).
position((46,38),cell,track(0)).
position((46,39),cell,track(0)).
position((4,63),cell,track(0)).
position((46,3),cell,track(0)).
position((46,40),cell,track(0)).
position((46,41),cell,track(0)).
position((46,42),cell,track(0)).
position((46,43),cell,track(0)).
position((46,44),cell,track(0)).
position((46,45),cell,track(0)).
position((46,46),cell,track(0)).
position((46,47),cell,track(0)).
position((46,48),cell,track(32800)).
position((46,49),cell,track(0)).
position((4,64),cell,track(0)).
position((46,4),cell,track(0)).
position((46,50),cell,track(0)).
position((46,51),cell,track(0)).
position((46,52),cell,track(0)).
position((46,53),cell,track(0)).
position((46,54),cell,track(0)).
position((46,55),cell,track(0)).
position((46,56),cell,track(0)).
position((46,57),cell,track(32800)).
position((46,58),cell,track(0)).
position((46,59),cell,track(0)).
position((4,65),cell,track(0)).
position((46,5),cell,track(0)).
position((46,60),cell,track(0)).
position((46,61),cell,track(0)).
position((46,62),cell,track(0)).
position((46,63),cell,track(0)).
position((46,64),cell,track(0)).
position((46,65),cell,track(0)).
position((46,66),cell,track(0)).
position((46,67),cell,track(0)).
position((46,68),cell,track(0)).
position((46,69),cell,track(0)).
position((4,66),cell,track(0)).
position((46,6),cell,track(0)).
position((46,70),cell,track(0)).
position((46,71),cell,track(0)).
position((46,72),cell,track(0)).
position((46,73),cell,track(0)).
position((46,74),cell,track(0)).
position((46,75),cell,track(0)).
position((46,76),cell,track(0)).
position((46,77),cell,track(0)).
position((46,78),cell,track(0)).
position((46,79),cell,track(0)).
position((4,67),cell,track(0)).
position((46,7),cell,track(0)).
position((4,68),cell,track(0)).
position((46,8),cell,track(0)).
position((4,69),cell,track(0)).
position((46,9),cell,track(0)).
position((4,6),cell,track(0)).
position((4,70),cell,track(0)).
position((47,0),cell,track(0)).
position((47,10),cell,track(0)).
position((47,11),cell,track(0)).
position((47,12),cell,track(0)).
position((47,13),cell,track(0)).
position((47,14),cell,track(0)).
position((47,15),cell,track(0)).
position((47,16),cell,track(0)).
position((47,17),cell,track(0)).
position((47,18),cell,track(0)).
position((47,19),cell,track(0)).
position((4,71),cell,track(0)).
position((47,1),cell,track(0)).
position((47,20),cell,track(0)).
position((47,21),cell,track(0)).
position((47,22),cell,track(0)).
position((47,23),cell,track(0)).
position((47,24),cell,track(0)).
position((47,25),cell,track(0)).
position((47,26),cell,track(0)).
position((47,27),cell,track(0)).
position((47,28),cell,track(0)).
position((47,29),cell,track(0)).
position((4,72),cell,track(0)).
position((47,2),cell,track(0)).
position((47,30),cell,track(0)).
position((47,31),cell,track(32800)).
position((47,32),cell,track(32800)).
position((47,33),cell,track(32800)).
position((47,34),cell,track(0)).
position((47,35),cell,track(32800)).
position((47,36),cell,track(72)).
position((47,37),cell,track(1025)).
position((47,38),cell,track(4608)).
position((47,39),cell,track(0)).
position((4,73),cell,track(0)).
position((47,3),cell,track(0)).
position((47,40),cell,track(0)).
position((47,41),cell,track(0)).
position((47,42),cell,track(0)).
position((47,43),cell,track(0)).
position((47,44),cell,track(0)).
position((47,45),cell,track(0)).
position((47,46),cell,track(0)).
position((47,47),cell,track(0)).
position((47,48),cell,track(32800)).
position((47,49),cell,track(0)).
position((4,74),cell,track(0)).
position((47,4),cell,track(0)).
position((47,50),cell,track(0)).
position((47,51),cell,track(0)).
position((47,52),cell,track(0)).
position((47,53),cell,track(0)).
position((47,54),cell,track(0)).
position((47,55),cell,track(0)).
position((47,56),cell,track(0)).
position((47,57),cell,track(32800)).
position((47,58),cell,track(0)).
position((47,59),cell,track(0)).
position((4,75),cell,track(0)).
position((47,5),cell,track(0)).
position((47,60),cell,track(0)).
position((47,61),cell,track(0)).
position((47,62),cell,track(0)).
position((47,63),cell,track(0)).
position((47,64),cell,track(0)).
position((47,65),cell,track(0)).
position((47,66),cell,track(0)).
position((47,67),cell,track(0)).
position((47,68),cell,track(0)).
position((47,69),cell,track(0)).
position((4,76),cell,track(0)).
position((47,6),cell,track(0)).
position((47,70),cell,track(0)).
position((47,71),cell,track(0)).
position((47,72),cell,track(0)).
position((47,73),cell,track(0)).
position((47,74),cell,track(0)).
position((47,75),cell,track(0)).
position((47,76),cell,track(0)).
position((47,77),cell,track(0)).
position((47,78),cell,track(0)).
position((47,79),cell,track(0)).
position((4,77),cell,track(0)).
position((47,7),cell,track(0)).
position((4,78),cell,track(0)).
position((47,8),cell,track(0)).
position((4,79),cell,track(0)).
position((47,9),cell,track(0)).
position((4,7),cell,track(0)).
position((48,0),cell,track(0)).
position((48,10),cell,track(0)).
position((48,11),cell,track(0)).
position((48,12),cell,track(0)).
position((48,13),cell,track(0)).
position((48,14),cell,track(0)).
position((48,15),cell,track(0)).
position((48,16),cell,track(0)).
position((48,17),cell,track(0)).
position((48,18),cell,track(0)).
position((48,19),cell,track(0)).
position((48,1),cell,track(0)).
position((48,20),cell,track(0)).
position((48,21),cell,track(0)).
position((48,22),cell,track(0)).
position((48,23),cell,track(0)).
position((48,24),cell,track(0)).
position((48,25),cell,track(0)).
position((48,26),cell,track(0)).
position((48,27),cell,track(0)).
position((48,28),cell,track(0)).
position((48,29),cell,track(0)).
position((48,2),cell,track(0)).
position((48,30),cell,track(0)).
position((48,31),cell,track(32800)).
position((48,32),cell,track(32800)).
position((48,33),cell,track(72)).
position((48,34),cell,track(4608)).
position((48,35),cell,track(72)).
position((48,36),cell,track(1025)).
position((48,37),cell,track(4608)).
position((48,38),cell,track(32800)).
position((48,39),cell,track(0)).
position((48,3),cell,track(0)).
position((48,40),cell,track(0)).
position((48,41),cell,track(0)).
position((48,42),cell,track(0)).
position((48,43),cell,track(0)).
position((48,44),cell,track(0)).
position((48,45),cell,track(0)).
position((48,46),cell,track(0)).
position((48,47),cell,track(0)).
position((48,48),cell,track(32800)).
position((48,49),cell,track(0)).
position((48,4),cell,track(0)).
position((48,50),cell,track(0)).
position((48,51),cell,track(0)).
position((48,52),cell,track(0)).
position((48,53),cell,track(0)).
position((48,54),cell,track(16386)).
position((48,55),cell,track(1025)).
position((48,56),cell,track(1025)).
position((48,57),cell,track(2064)).
position((48,58),cell,track(0)).
position((48,59),cell,track(0)).
position((48,5),cell,track(0)).
position((48,60),cell,track(0)).
position((48,61),cell,track(0)).
position((48,62),cell,track(0)).
position((48,63),cell,track(0)).
position((48,64),cell,track(0)).
position((48,65),cell,track(0)).
position((48,66),cell,track(0)).
position((48,67),cell,track(0)).
position((48,68),cell,track(0)).
position((48,69),cell,track(0)).
position((48,6),cell,track(0)).
position((48,70),cell,track(0)).
position((48,71),cell,track(0)).
position((48,72),cell,track(0)).
position((48,73),cell,track(0)).
position((48,74),cell,track(0)).
position((48,75),cell,track(0)).
position((48,76),cell,track(0)).
position((48,77),cell,track(0)).
position((48,78),cell,track(0)).
position((48,79),cell,track(0)).
position((48,7),cell,track(0)).
position((48,8),cell,track(0)).
position((48,9),cell,track(0)).
position((4,8),cell,track(0)).
position((49,0),cell,track(0)).
position((49,10),cell,track(0)).
position((49,11),cell,track(0)).
position((49,12),cell,track(0)).
position((49,13),cell,track(0)).
position((49,14),cell,track(0)).
position((49,15),cell,track(0)).
position((49,16),cell,track(0)).
position((49,17),cell,track(0)).
position((49,18),cell,track(0)).
position((49,19),cell,track(0)).
position((49,1),cell,track(0)).
position((49,20),cell,track(0)).
position((49,21),cell,track(0)).
position((49,22),cell,track(0)).
position((49,23),cell,track(0)).
position((49,24),cell,track(0)).
position((49,25),cell,track(0)).
position((49,26),cell,track(0)).
position((49,27),cell,track(0)).
position((49,28),cell,track(0)).
position((49,29),cell,track(0)).
position((49,2),cell,track(0)).
position((49,30),cell,track(0)).
position((49,31),cell,track(32800)).
position((49,32),cell,track(72)).
position((49,33),cell,track(1025)).
position((49,34),cell,track(1097)).
position((49,35),cell,track(1025)).
position((49,36),cell,track(4608)).
position((49,37),cell,track(72)).
position((49,38),cell,track(37408)).
position((49,39),cell,track(0)).
position((49,3),cell,track(0)).
position((49,40),cell,track(0)).
position((49,41),cell,track(0)).
position((49,42),cell,track(16386)).
position((49,43),cell,track(1025)).
position((49,44),cell,track(4608)).
position((49,45),cell,track(0)).
position((49,46),cell,track(0)).
position((49,47),cell,track(0)).
position((49,48),cell,track(32800)).
position((49,49),cell,track(16386)).
position((49,4),cell,track(0)).
position((49,50),cell,track(1025)).
position((49,51),cell,track(1025)).
position((49,52),cell,track(1025)).
position((49,53),cell,track(1025)).
position((49,54),cell,track(2064)).
position((49,55),cell,track(0)).
position((49,56),cell,track(0)).
position((49,57),cell,track(0)).
position((49,58),cell,track(0)).
position((49,59),cell,track(0)).
position((49,5),cell,track(0)).
position((49,60),cell,track(0)).
position((49,61),cell,track(0)).
position((49,62),cell,track(0)).
position((49,63),cell,track(0)).
position((49,64),cell,track(0)).
position((49,65),cell,track(0)).
position((49,66),cell,track(0)).
position((49,67),cell,track(0)).
position((49,68),cell,track(0)).
position((49,69),cell,track(0)).
position((49,6),cell,track(0)).
position((49,70),cell,track(0)).
position((49,71),cell,track(0)).
position((49,72),cell,track(0)).
position((49,73),cell,track(0)).
position((49,74),cell,track(0)).
position((49,75),cell,track(0)).
position((49,76),cell,track(0)).
position((49,77),cell,track(0)).
position((49,78),cell,track(0)).
position((49,79),cell,track(0)).
position((49,7),cell,track(0)).
position((49,8),cell,track(0)).
position((49,9),cell,track(0)).
position((4,9),cell,track(0)).
position((50,0),cell,track(0)).
position((50,10),cell,track(0)).
position((50,11),cell,track(0)).
position((50,12),cell,track(0)).
position((50,13),cell,track(0)).
position((50,14),cell,track(0)).
position((50,15),cell,track(0)).
position((50,16),cell,track(0)).
position((50,17),cell,track(0)).
position((50,18),cell,track(0)).
position((50,19),cell,track(0)).
position((50,1),cell,track(0)).
position((50,20),cell,track(0)).
position((50,21),cell,track(0)).
position((50,22),cell,track(0)).
position((50,23),cell,track(0)).
position((50,24),cell,track(0)).
position((50,25),cell,track(0)).
position((50,26),cell,track(0)).
position((50,27),cell,track(0)).
position((50,28),cell,track(0)).
position((50,29),cell,track(0)).
position((50,2),cell,track(0)).
position((50,30),cell,track(0)).
position((50,31),cell,track(72)).
position((50,32),cell,track(1025)).
position((50,33),cell,track(1025)).
position((50,34),cell,track(1025)).
position((50,35),cell,track(1025)).
position((50,36),cell,track(1097)).
position((50,37),cell,track(5633)).
position((50,38),cell,track(33897)).
position((50,39),cell,track(1025)).
position((50,3),cell,track(0)).
position((50,40),cell,track(5633)).
position((50,41),cell,track(17411)).
position((50,42),cell,track(3089)).
position((50,43),cell,track(1025)).
position((50,44),cell,track(1097)).
position((50,45),cell,track(5633)).
position((50,46),cell,track(17411)).
position((50,47),cell,track(1025)).
position((50,48),cell,track(52275)).
position((50,49),cell,track(3089)).
position((50,4),cell,track(0)).
position((50,50),cell,track(1025)).
position((50,51),cell,track(4608)).
position((50,52),cell,track(0)).
position((50,53),cell,track(0)).
position((50,54),cell,track(0)).
position((50,55),cell,track(0)).
position((50,56),cell,track(0)).
position((50,57),cell,track(0)).
position((50,58),cell,track(0)).
position((50,59),cell,track(0)).
position((50,5),cell,track(0)).
position((50,60),cell,track(0)).
position((50,61),cell,track(0)).
position((50,62),cell,track(0)).
position((50,63),cell,track(0)).
position((50,64),cell,track(0)).
position((50,65),cell,track(0)).
position((50,66),cell,track(0)).
position((50,67),cell,track(0)).
position((50,68),cell,track(0)).
position((50,69),cell,track(0)).
position((50,6),cell,track(0)).
position((50,70),cell,track(0)).
position((50,71),cell,track(0)).
position((50,72),cell,track(0)).
position((50,73),cell,track(0)).
position((50,74),cell,track(0)).
position((50,75),cell,track(0)).
position((50,76),cell,track(0)).
position((50,77),cell,track(0)).
position((50,78),cell,track(0)).
position((50,79),cell,track(0)).
position((50,7),cell,track(0)).
position((50,8),cell,track(0)).
position((50,9),cell,track(0)).
position((5,0),cell,track(0)).
position((5,10),cell,track(0)).
position((51,0),cell,track(0)).
position((51,10),cell,track(0)).
position((51,11),cell,track(0)).
position((51,12),cell,track(0)).
position((51,13),cell,track(0)).
position((51,14),cell,track(0)).
position((51,15),cell,track(0)).
position((51,16),cell,track(0)).
position((51,17),cell,track(0)).
position((51,18),cell,track(0)).
position((51,19),cell,track(0)).
position((5,11),cell,track(0)).
position((51,1),cell,track(0)).
position((51,20),cell,track(0)).
position((51,21),cell,track(0)).
position((51,22),cell,track(0)).
position((51,23),cell,track(0)).
position((51,24),cell,track(0)).
position((51,25),cell,track(0)).
position((51,26),cell,track(0)).
position((51,27),cell,track(0)).
position((51,28),cell,track(0)).
position((51,29),cell,track(0)).
position((5,12),cell,track(0)).
position((51,2),cell,track(0)).
position((51,30),cell,track(0)).
position((51,31),cell,track(0)).
position((51,32),cell,track(0)).
position((51,33),cell,track(0)).
position((51,34),cell,track(0)).
position((51,35),cell,track(0)).
position((51,36),cell,track(0)).
position((51,37),cell,track(32800)).
position((51,38),cell,track(32800)).
position((51,39),cell,track(0)).
position((5,13),cell,track(0)).
position((51,3),cell,track(0)).
position((51,40),cell,track(72)).
position((51,41),cell,track(3089)).
position((51,42),cell,track(5633)).
position((51,43),cell,track(1025)).
position((51,44),cell,track(17411)).
position((51,45),cell,track(1097)).
position((51,46),cell,track(2064)).
position((51,47),cell,track(0)).
position((51,48),cell,track(32800)).
position((51,49),cell,track(0)).
position((5,14),cell,track(0)).
position((51,4),cell,track(0)).
position((51,50),cell,track(0)).
position((51,51),cell,track(72)).
position((51,52),cell,track(4608)).
position((51,53),cell,track(0)).
position((51,54),cell,track(0)).
position((51,55),cell,track(0)).
position((51,56),cell,track(0)).
position((51,57),cell,track(0)).
position((51,58),cell,track(0)).
position((51,59),cell,track(0)).
position((5,15),cell,track(0)).
position((51,5),cell,track(0)).
position((51,60),cell,track(0)).
position((51,61),cell,track(0)).
position((51,62),cell,track(0)).
position((51,63),cell,track(0)).
position((51,64),cell,track(0)).
position((51,65),cell,track(0)).
position((51,66),cell,track(0)).
position((51,67),cell,track(0)).
position((51,68),cell,track(0)).
position((51,69),cell,track(0)).
position((5,16),cell,track(0)).
position((51,6),cell,track(0)).
position((51,70),cell,track(0)).
position((51,71),cell,track(0)).
position((51,72),cell,track(0)).
position((51,73),cell,track(0)).
position((51,74),cell,track(0)).
position((51,75),cell,track(0)).
position((51,76),cell,track(0)).
position((51,77),cell,track(0)).
position((51,78),cell,track(0)).
position((51,79),cell,track(0)).
position((5,17),cell,track(0)).
position((51,7),cell,track(0)).
position((5,18),cell,track(0)).
position((51,8),cell,track(0)).
position((5,19),cell,track(0)).
position((51,9),cell,track(0)).
position((5,1),cell,track(0)).
position((5,20),cell,track(0)).
position((52,0),cell,track(0)).
position((52,10),cell,track(0)).
position((52,11),cell,track(0)).
position((52,12),cell,track(0)).
position((52,13),cell,track(0)).
position((52,14),cell,track(0)).
position((52,15),cell,track(0)).
position((52,16),cell,track(0)).
position((52,17),cell,track(0)).
position((52,18),cell,track(0)).
position((52,19),cell,track(0)).
position((5,21),cell,track(0)).
position((52,1),cell,track(0)).
position((52,20),cell,track(0)).
position((52,21),cell,track(0)).
position((52,22),cell,track(0)).
position((52,23),cell,track(0)).
position((52,24),cell,track(0)).
position((52,25),cell,track(0)).
position((52,26),cell,track(0)).
position((52,27),cell,track(0)).
position((52,28),cell,track(0)).
position((52,29),cell,track(0)).
position((5,22),cell,track(0)).
position((52,2),cell,track(0)).
position((52,30),cell,track(0)).
position((52,31),cell,track(0)).
position((52,32),cell,track(0)).
position((52,33),cell,track(0)).
position((52,34),cell,track(0)).
position((52,35),cell,track(0)).
position((52,36),cell,track(0)).
position((52,37),cell,track(32800)).
position((52,38),cell,track(32800)).
position((52,39),cell,track(0)).
position((5,23),cell,track(0)).
position((52,3),cell,track(0)).
position((52,40),cell,track(0)).
position((52,41),cell,track(0)).
position((52,42),cell,track(72)).
position((52,43),cell,track(1025)).
position((52,44),cell,track(2064)).
position((52,45),cell,track(0)).
position((52,46),cell,track(0)).
position((52,47),cell,track(0)).
position((52,48),cell,track(32800)).
position((52,49),cell,track(0)).
position((5,24),cell,track(0)).
position((52,4),cell,track(0)).
position((52,50),cell,track(0)).
position((52,51),cell,track(0)).
position((52,52),cell,track(72)).
position((52,53),cell,track(4608)).
position((52,54),cell,track(0)).
position((52,55),cell,track(0)).
position((52,56),cell,track(0)).
position((52,57),cell,track(0)).
position((52,58),cell,track(0)).
position((52,59),cell,track(0)).
position((5,25),cell,track(0)).
position((52,5),cell,track(0)).
position((52,60),cell,track(0)).
position((52,61),cell,track(0)).
position((52,62),cell,track(0)).
position((52,63),cell,track(0)).
position((52,64),cell,track(0)).
position((52,65),cell,track(0)).
position((52,66),cell,track(0)).
position((52,67),cell,track(0)).
position((52,68),cell,track(0)).
position((52,69),cell,track(0)).
position((5,26),cell,track(0)).
position((52,6),cell,track(0)).
position((52,70),cell,track(0)).
position((52,71),cell,track(0)).
position((52,72),cell,track(0)).
position((52,73),cell,track(0)).
position((52,74),cell,track(0)).
position((52,75),cell,track(0)).
position((52,76),cell,track(0)).
position((52,77),cell,track(0)).
position((52,78),cell,track(0)).
position((52,79),cell,track(0)).
position((5,27),cell,track(0)).
position((52,7),cell,track(0)).
position((5,28),cell,track(0)).
position((52,8),cell,track(0)).
position((5,29),cell,track(0)).
position((52,9),cell,track(0)).
position((5,2),cell,track(0)).
position((5,30),cell,track(0)).
position((53,0),cell,track(0)).
position((53,10),cell,track(0)).
position((53,11),cell,track(0)).
position((53,12),cell,track(0)).
position((53,13),cell,track(0)).
position((53,14),cell,track(0)).
position((53,15),cell,track(0)).
position((53,16),cell,track(0)).
position((53,17),cell,track(0)).
position((53,18),cell,track(0)).
position((53,19),cell,track(0)).
position((5,31),cell,track(0)).
position((53,1),cell,track(0)).
position((53,20),cell,track(0)).
position((53,21),cell,track(0)).
position((53,22),cell,track(0)).
position((53,23),cell,track(0)).
position((53,24),cell,track(0)).
position((53,25),cell,track(0)).
position((53,26),cell,track(0)).
position((53,27),cell,track(0)).
position((53,28),cell,track(0)).
position((53,29),cell,track(0)).
position((5,32),cell,track(0)).
position((53,2),cell,track(0)).
position((53,30),cell,track(0)).
position((53,31),cell,track(0)).
position((53,32),cell,track(0)).
position((53,33),cell,track(0)).
position((53,34),cell,track(0)).
position((53,35),cell,track(0)).
position((53,36),cell,track(0)).
position((53,37),cell,track(32800)).
position((53,38),cell,track(32800)).
position((53,39),cell,track(0)).
position((5,33),cell,track(0)).
position((53,3),cell,track(0)).
position((53,40),cell,track(0)).
position((53,41),cell,track(0)).
position((53,42),cell,track(0)).
position((53,43),cell,track(0)).
position((53,44),cell,track(0)).
position((53,45),cell,track(0)).
position((53,46),cell,track(0)).
position((53,47),cell,track(0)).
position((53,48),cell,track(32800)).
position((53,49),cell,track(0)).
position((5,34),cell,track(0)).
position((53,4),cell,track(0)).
position((53,50),cell,track(0)).
position((53,51),cell,track(0)).
position((53,52),cell,track(0)).
position((53,53),cell,track(32800)).
position((53,54),cell,track(0)).
position((53,55),cell,track(0)).
position((53,56),cell,track(0)).
position((53,57),cell,track(0)).
position((53,58),cell,track(0)).
position((53,59),cell,track(0)).
position((5,35),cell,track(0)).
position((53,5),cell,track(0)).
position((53,60),cell,track(0)).
position((53,61),cell,track(0)).
position((53,62),cell,track(0)).
position((53,63),cell,track(0)).
position((53,64),cell,track(0)).
position((53,65),cell,track(0)).
position((53,66),cell,track(0)).
position((53,67),cell,track(0)).
position((53,68),cell,track(0)).
position((53,69),cell,track(0)).
position((5,36),cell,track(0)).
position((53,6),cell,track(0)).
position((53,70),cell,track(0)).
position((53,71),cell,track(0)).
position((53,72),cell,track(0)).
position((53,73),cell,track(0)).
position((53,74),cell,track(0)).
position((53,75),cell,track(0)).
position((53,76),cell,track(0)).
position((53,77),cell,track(0)).
position((53,78),cell,track(0)).
position((53,79),cell,track(0)).
position((5,37),cell,track(0)).
position((53,7),cell,track(0)).
position((5,38),cell,track(0)).
position((53,8),cell,track(0)).
position((5,39),cell,track(0)).
position((53,9),cell,track(0)).
position((5,3),cell,track(0)).
position((5,40),cell,track(0)).
position((54,0),cell,track(0)).
position((54,10),cell,track(0)).
position((54,11),cell,track(0)).
position((54,12),cell,track(0)).
position((54,13),cell,track(0)).
position((54,14),cell,track(0)).
position((54,15),cell,track(0)).
position((54,16),cell,track(0)).
position((54,17),cell,track(0)).
position((54,18),cell,track(0)).
position((54,19),cell,track(0)).
position((5,41),cell,track(0)).
position((54,1),cell,track(0)).
position((54,20),cell,track(0)).
position((54,21),cell,track(0)).
position((54,22),cell,track(0)).
position((54,23),cell,track(0)).
position((54,24),cell,track(0)).
position((54,25),cell,track(0)).
position((54,26),cell,track(0)).
position((54,27),cell,track(0)).
position((54,28),cell,track(0)).
position((54,29),cell,track(0)).
position((5,42),cell,track(0)).
position((54,2),cell,track(0)).
position((54,30),cell,track(0)).
position((54,31),cell,track(0)).
position((54,32),cell,track(0)).
position((54,33),cell,track(0)).
position((54,34),cell,track(0)).
position((54,35),cell,track(0)).
position((54,36),cell,track(0)).
position((54,37),cell,track(32800)).
position((54,38),cell,track(32800)).
position((54,39),cell,track(0)).
position((5,43),cell,track(0)).
position((54,3),cell,track(0)).
position((54,40),cell,track(0)).
position((54,41),cell,track(0)).
position((54,42),cell,track(0)).
position((54,43),cell,track(0)).
position((54,44),cell,track(0)).
position((54,45),cell,track(0)).
position((54,46),cell,track(0)).
position((54,47),cell,track(0)).
position((54,48),cell,track(32800)).
position((54,49),cell,track(0)).
position((5,44),cell,track(0)).
position((54,4),cell,track(0)).
position((54,50),cell,track(0)).
position((54,51),cell,track(0)).
position((54,52),cell,track(0)).
position((54,53),cell,track(32800)).
position((54,54),cell,track(0)).
position((54,55),cell,track(0)).
position((54,56),cell,track(0)).
position((54,57),cell,track(0)).
position((54,58),cell,track(0)).
position((54,59),cell,track(0)).
position((5,45),cell,track(0)).
position((54,5),cell,track(0)).
position((54,60),cell,track(0)).
position((54,61),cell,track(0)).
position((54,62),cell,track(0)).
position((54,63),cell,track(0)).
position((54,64),cell,track(0)).
position((54,65),cell,track(0)).
position((54,66),cell,track(0)).
position((54,67),cell,track(0)).
position((54,68),cell,track(0)).
position((54,69),cell,track(0)).
position((5,46),cell,track(0)).
position((54,6),cell,track(0)).
position((54,70),cell,track(0)).
position((54,71),cell,track(0)).
position((54,72),cell,track(0)).
position((54,73),cell,track(0)).
position((54,74),cell,track(0)).
position((54,75),cell,track(0)).
position((54,76),cell,track(0)).
position((54,77),cell,track(0)).
position((54,78),cell,track(0)).
position((54,79),cell,track(0)).
position((5,47),cell,track(0)).
position((54,7),cell,track(0)).
position((5,48),cell,track(0)).
position((54,8),cell,track(0)).
position((5,49),cell,track(0)).
position((54,9),cell,track(0)).
position((5,4),cell,track(0)).
position((5,50),cell,track(0)).
position((55,0),cell,track(0)).
position((55,10),cell,track(0)).
position((55,11),cell,track(0)).
position((55,12),cell,track(0)).
position((55,13),cell,track(0)).
position((55,14),cell,track(0)).
position((55,15),cell,track(0)).
position((55,16),cell,track(0)).
position((55,17),cell,track(0)).
position((55,18),cell,track(0)).
position((55,19),cell,track(0)).
position((5,51),cell,track(0)).
position((55,1),cell,track(0)).
position((55,20),cell,track(0)).
position((55,21),cell,track(0)).
position((55,22),cell,track(0)).
position((55,23),cell,track(0)).
position((55,24),cell,track(0)).
position((55,25),cell,track(0)).
position((55,26),cell,track(0)).
position((55,27),cell,track(0)).
position((55,28),cell,track(0)).
position((55,29),cell,track(0)).
position((5,52),cell,track(0)).
position((55,2),cell,track(0)).
position((55,30),cell,track(0)).
position((55,31),cell,track(0)).
position((55,32),cell,track(0)).
position((55,33),cell,track(0)).
position((55,34),cell,track(0)).
position((55,35),cell,track(0)).
position((55,36),cell,track(0)).
position((55,37),cell,track(32800)).
position((55,38),cell,track(32800)).
position((55,39),cell,track(0)).
position((5,53),cell,track(0)).
position((55,3),cell,track(0)).
position((55,40),cell,track(0)).
position((55,41),cell,track(0)).
position((55,42),cell,track(0)).
position((55,43),cell,track(0)).
position((55,44),cell,track(0)).
position((55,45),cell,track(0)).
position((55,46),cell,track(0)).
position((55,47),cell,track(0)).
position((55,48),cell,track(32800)).
position((55,49),cell,track(0)).
position((5,54),cell,track(0)).
position((55,4),cell,track(0)).
position((55,50),cell,track(0)).
position((55,51),cell,track(0)).
position((55,52),cell,track(0)).
position((55,53),cell,track(32800)).
position((55,54),cell,track(0)).
position((55,55),cell,track(0)).
position((55,56),cell,track(0)).
position((55,57),cell,track(0)).
position((55,58),cell,track(0)).
position((55,59),cell,track(0)).
position((5,55),cell,track(0)).
position((55,5),cell,track(0)).
position((55,60),cell,track(0)).
position((55,61),cell,track(0)).
position((55,62),cell,track(0)).
position((55,63),cell,track(0)).
position((55,64),cell,track(0)).
position((55,65),cell,track(0)).
position((55,66),cell,track(0)).
position((55,67),cell,track(0)).
position((55,68),cell,track(0)).
position((55,69),cell,track(0)).
position((5,56),cell,track(0)).
position((55,6),cell,track(0)).
position((55,70),cell,track(0)).
position((55,71),cell,track(0)).
position((55,72),cell,track(0)).
position((55,73),cell,track(0)).
position((55,74),cell,track(0)).
position((55,75),cell,track(0)).
position((55,76),cell,track(0)).
position((55,77),cell,track(0)).
position((55,78),cell,track(0)).
position((55,79),cell,track(0)).
position((5,57),cell,track(0)).
position((55,7),cell,track(0)).
position((5,58),cell,track(0)).
position((55,8),cell,track(0)).
position((5,59),cell,track(0)).
position((55,9),cell,track(0)).
position((5,5),cell,track(0)).
position((5,60),cell,track(0)).
position((56,0),cell,track(0)).
position((56,10),cell,track(0)).
position((56,11),cell,track(0)).
position((56,12),cell,track(0)).
position((56,13),cell,track(0)).
position((56,14),cell,track(0)).
position((56,15),cell,track(0)).
position((56,16),cell,track(0)).
position((56,17),cell,track(0)).
position((56,18),cell,track(0)).
position((56,19),cell,track(0)).
position((5,61),cell,track(0)).
position((56,1),cell,track(0)).
position((56,20),cell,track(0)).
position((56,21),cell,track(0)).
position((56,22),cell,track(0)).
position((56,23),cell,track(0)).
position((56,24),cell,track(0)).
position((56,25),cell,track(0)).
position((56,26),cell,track(0)).
position((56,27),cell,track(0)).
position((56,28),cell,track(0)).
position((56,29),cell,track(0)).
position((5,62),cell,track(0)).
position((56,2),cell,track(0)).
position((56,30),cell,track(0)).
position((56,31),cell,track(0)).
position((56,32),cell,track(0)).
position((56,33),cell,track(0)).
position((56,34),cell,track(0)).
position((56,35),cell,track(0)).
position((56,36),cell,track(0)).
position((56,37),cell,track(32800)).
position((56,38),cell,track(32800)).
position((56,39),cell,track(0)).
position((5,63),cell,track(0)).
position((56,3),cell,track(0)).
position((56,40),cell,track(0)).
position((56,41),cell,track(0)).
position((56,42),cell,track(0)).
position((56,43),cell,track(0)).
position((56,44),cell,track(0)).
position((56,45),cell,track(0)).
position((56,46),cell,track(0)).
position((56,47),cell,track(0)).
position((56,48),cell,track(32800)).
position((56,49),cell,track(0)).
position((5,64),cell,track(0)).
position((56,4),cell,track(0)).
position((56,50),cell,track(0)).
position((56,51),cell,track(0)).
position((56,52),cell,track(0)).
position((56,53),cell,track(32800)).
position((56,54),cell,track(0)).
position((56,55),cell,track(0)).
position((56,56),cell,track(0)).
position((56,57),cell,track(0)).
position((56,58),cell,track(0)).
position((56,59),cell,track(0)).
position((5,65),cell,track(0)).
position((56,5),cell,track(0)).
position((56,60),cell,track(0)).
position((56,61),cell,track(0)).
position((56,62),cell,track(0)).
position((56,63),cell,track(0)).
position((56,64),cell,track(0)).
position((56,65),cell,track(0)).
position((56,66),cell,track(0)).
position((56,67),cell,track(0)).
position((56,68),cell,track(0)).
position((56,69),cell,track(0)).
position((5,66),cell,track(0)).
position((56,6),cell,track(0)).
position((56,70),cell,track(0)).
position((56,71),cell,track(0)).
position((56,72),cell,track(0)).
position((56,73),cell,track(0)).
position((56,74),cell,track(0)).
position((56,75),cell,track(0)).
position((56,76),cell,track(0)).
position((56,77),cell,track(0)).
position((56,78),cell,track(0)).
position((56,79),cell,track(0)).
position((5,67),cell,track(0)).
position((56,7),cell,track(0)).
position((5,68),cell,track(0)).
position((56,8),cell,track(0)).
position((5,69),cell,track(0)).
position((56,9),cell,track(0)).
position((5,6),cell,track(0)).
position((5,70),cell,track(0)).
position((57,0),cell,track(0)).
position((57,10),cell,track(0)).
position((57,11),cell,track(0)).
position((57,12),cell,track(0)).
position((57,13),cell,track(0)).
position((57,14),cell,track(0)).
position((57,15),cell,track(0)).
position((57,16),cell,track(0)).
position((57,17),cell,track(0)).
position((57,18),cell,track(0)).
position((57,19),cell,track(0)).
position((5,71),cell,track(0)).
position((57,1),cell,track(0)).
position((57,20),cell,track(0)).
position((57,21),cell,track(0)).
position((57,22),cell,track(0)).
position((57,23),cell,track(0)).
position((57,24),cell,track(0)).
position((57,25),cell,track(0)).
position((57,26),cell,track(0)).
position((57,27),cell,track(0)).
position((57,28),cell,track(0)).
position((57,29),cell,track(0)).
position((5,72),cell,track(0)).
position((57,2),cell,track(0)).
position((57,30),cell,track(0)).
position((57,31),cell,track(0)).
position((57,32),cell,track(0)).
position((57,33),cell,track(0)).
position((57,34),cell,track(0)).
position((57,35),cell,track(0)).
position((57,36),cell,track(0)).
position((57,37),cell,track(32800)).
position((57,38),cell,track(32800)).
position((57,39),cell,track(0)).
position((5,73),cell,track(0)).
position((57,3),cell,track(0)).
position((57,40),cell,track(0)).
position((57,41),cell,track(0)).
position((57,42),cell,track(0)).
position((57,43),cell,track(0)).
position((57,44),cell,track(0)).
position((57,45),cell,track(0)).
position((57,46),cell,track(0)).
position((57,47),cell,track(0)).
position((57,48),cell,track(32800)).
position((57,49),cell,track(0)).
position((5,74),cell,track(0)).
position((57,4),cell,track(0)).
position((57,50),cell,track(0)).
position((57,51),cell,track(0)).
position((57,52),cell,track(0)).
position((57,53),cell,track(32800)).
position((57,54),cell,track(0)).
position((57,55),cell,track(0)).
position((57,56),cell,track(0)).
position((57,57),cell,track(0)).
position((57,58),cell,track(0)).
position((57,59),cell,track(0)).
position((5,75),cell,track(0)).
position((57,5),cell,track(0)).
position((57,60),cell,track(0)).
position((57,61),cell,track(0)).
position((57,62),cell,track(0)).
position((57,63),cell,track(0)).
position((57,64),cell,track(0)).
position((57,65),cell,track(0)).
position((57,66),cell,track(0)).
position((57,67),cell,track(0)).
position((57,68),cell,track(0)).
position((57,69),cell,track(0)).
position((5,76),cell,track(0)).
position((57,6),cell,track(0)).
position((57,70),cell,track(0)).
position((57,71),cell,track(0)).
position((57,72),cell,track(0)).
position((57,73),cell,track(0)).
position((57,74),cell,track(0)).
position((57,75),cell,track(0)).
position((57,76),cell,track(0)).
position((57,77),cell,track(0)).
position((57,78),cell,track(0)).
position((57,79),cell,track(0)).
position((5,77),cell,track(0)).
position((57,7),cell,track(0)).
position((5,78),cell,track(0)).
position((57,8),cell,track(0)).
position((5,79),cell,track(0)).
position((57,9),cell,track(0)).
position((5,7),cell,track(0)).
position((58,0),cell,track(0)).
position((58,10),cell,track(0)).
position((58,11),cell,track(0)).
position((58,12),cell,track(0)).
position((58,13),cell,track(0)).
position((58,14),cell,track(0)).
position((58,15),cell,track(0)).
position((58,16),cell,track(0)).
position((58,17),cell,track(0)).
position((58,18),cell,track(0)).
position((58,19),cell,track(0)).
position((58,1),cell,track(0)).
position((58,20),cell,track(0)).
position((58,21),cell,track(0)).
position((58,22),cell,track(0)).
position((58,23),cell,track(0)).
position((58,24),cell,track(0)).
position((58,25),cell,track(0)).
position((58,26),cell,track(0)).
position((58,27),cell,track(0)).
position((58,28),cell,track(0)).
position((58,29),cell,track(0)).
position((58,2),cell,track(0)).
position((58,30),cell,track(0)).
position((58,31),cell,track(0)).
position((58,32),cell,track(0)).
position((58,33),cell,track(0)).
position((58,34),cell,track(0)).
position((58,35),cell,track(0)).
position((58,36),cell,track(0)).
position((58,37),cell,track(72)).
position((58,38),cell,track(33825)).
position((58,39),cell,track(1025)).
position((58,3),cell,track(0)).
position((58,40),cell,track(1025)).
position((58,41),cell,track(1025)).
position((58,42),cell,track(1025)).
position((58,43),cell,track(1025)).
position((58,44),cell,track(4608)).
position((58,45),cell,track(0)).
position((58,46),cell,track(0)).
position((58,47),cell,track(0)).
position((58,48),cell,track(32800)).
position((58,49),cell,track(0)).
position((58,4),cell,track(0)).
position((58,50),cell,track(0)).
position((58,51),cell,track(0)).
position((58,52),cell,track(0)).
position((58,53),cell,track(32800)).
position((58,54),cell,track(0)).
position((58,55),cell,track(0)).
position((58,56),cell,track(0)).
position((58,57),cell,track(0)).
position((58,58),cell,track(0)).
position((58,59),cell,track(0)).
position((58,5),cell,track(0)).
position((58,60),cell,track(0)).
position((58,61),cell,track(0)).
position((58,62),cell,track(0)).
position((58,63),cell,track(0)).
position((58,64),cell,track(0)).
position((58,65),cell,track(0)).
position((58,66),cell,track(0)).
position((58,67),cell,track(0)).
position((58,68),cell,track(0)).
position((58,69),cell,track(0)).
position((58,6),cell,track(0)).
position((58,70),cell,track(0)).
position((58,71),cell,track(0)).
position((58,72),cell,track(0)).
position((58,73),cell,track(0)).
position((58,74),cell,track(0)).
position((58,75),cell,track(0)).
position((58,76),cell,track(0)).
position((58,77),cell,track(0)).
position((58,78),cell,track(0)).
position((58,79),cell,track(0)).
position((58,7),cell,track(0)).
position((58,8),cell,track(0)).
position((58,9),cell,track(0)).
position((5,8),cell,track(0)).
position((59,0),cell,track(0)).
position((59,10),cell,track(0)).
position((59,11),cell,track(0)).
position((59,12),cell,track(0)).
position((59,13),cell,track(0)).
position((59,14),cell,track(0)).
position((59,15),cell,track(0)).
position((59,16),cell,track(0)).
position((59,17),cell,track(0)).
position((59,18),cell,track(0)).
position((59,19),cell,track(0)).
position((59,1),cell,track(0)).
position((59,20),cell,track(0)).
position((59,21),cell,track(0)).
position((59,22),cell,track(0)).
position((59,23),cell,track(0)).
position((59,24),cell,track(0)).
position((59,25),cell,track(0)).
position((59,26),cell,track(0)).
position((59,27),cell,track(0)).
position((59,28),cell,track(0)).
position((59,29),cell,track(0)).
position((59,2),cell,track(0)).
position((59,30),cell,track(0)).
position((59,31),cell,track(0)).
position((59,32),cell,track(0)).
position((59,33),cell,track(0)).
position((59,34),cell,track(0)).
position((59,35),cell,track(0)).
position((59,36),cell,track(0)).
position((59,37),cell,track(0)).
position((59,38),cell,track(32800)).
position((59,39),cell,track(0)).
position((59,3),cell,track(0)).
position((59,40),cell,track(0)).
position((59,41),cell,track(0)).
position((59,42),cell,track(0)).
position((59,43),cell,track(0)).
position((59,44),cell,track(32800)).
position((59,45),cell,track(0)).
position((59,46),cell,track(0)).
position((59,47),cell,track(0)).
position((59,48),cell,track(32800)).
position((59,49),cell,track(0)).
position((59,4),cell,track(0)).
position((59,50),cell,track(0)).
position((59,51),cell,track(0)).
position((59,52),cell,track(0)).
position((59,53),cell,track(32800)).
position((59,54),cell,track(0)).
position((59,55),cell,track(0)).
position((59,56),cell,track(0)).
position((59,57),cell,track(0)).
position((59,58),cell,track(0)).
position((59,59),cell,track(0)).
position((59,5),cell,track(0)).
position((59,60),cell,track(0)).
position((59,61),cell,track(0)).
position((59,62),cell,track(0)).
position((59,63),cell,track(0)).
position((59,64),cell,track(0)).
position((59,65),cell,track(0)).
position((59,66),cell,track(0)).
position((59,67),cell,track(0)).
position((59,68),cell,track(0)).
position((59,69),cell,track(0)).
position((59,6),cell,track(0)).
position((59,70),cell,track(0)).
position((59,71),cell,track(0)).
position((59,72),cell,track(0)).
position((59,73),cell,track(0)).
position((59,74),cell,track(0)).
position((59,75),cell,track(0)).
position((59,76),cell,track(0)).
position((59,77),cell,track(0)).
position((59,78),cell,track(0)).
position((59,79),cell,track(0)).
position((59,7),cell,track(0)).
position((59,8),cell,track(0)).
position((59,9),cell,track(0)).
position((5,9),cell,track(0)).
position((60,0),cell,track(0)).
position((60,10),cell,track(0)).
position((60,11),cell,track(0)).
position((60,12),cell,track(0)).
position((60,13),cell,track(0)).
position((60,14),cell,track(0)).
position((60,15),cell,track(0)).
position((60,16),cell,track(0)).
position((60,17),cell,track(0)).
position((60,18),cell,track(0)).
position((60,19),cell,track(0)).
position((60,1),cell,track(0)).
position((60,20),cell,track(0)).
position((60,21),cell,track(0)).
position((60,22),cell,track(0)).
position((60,23),cell,track(0)).
position((60,24),cell,track(0)).
position((60,25),cell,track(0)).
position((60,26),cell,track(0)).
position((60,27),cell,track(0)).
position((60,28),cell,track(0)).
position((60,29),cell,track(0)).
position((60,2),cell,track(0)).
position((60,30),cell,track(0)).
position((60,31),cell,track(0)).
position((60,32),cell,track(0)).
position((60,33),cell,track(0)).
position((60,34),cell,track(0)).
position((60,35),cell,track(0)).
position((60,36),cell,track(0)).
position((60,37),cell,track(0)).
position((60,38),cell,track(32800)).
position((60,39),cell,track(0)).
position((60,3),cell,track(0)).
position((60,40),cell,track(0)).
position((60,41),cell,track(0)).
position((60,42),cell,track(0)).
position((60,43),cell,track(0)).
position((60,44),cell,track(72)).
position((60,45),cell,track(4608)).
position((60,46),cell,track(0)).
position((60,47),cell,track(0)).
position((60,48),cell,track(72)).
position((60,49),cell,track(1025)).
position((60,4),cell,track(0)).
position((60,50),cell,track(1025)).
position((60,51),cell,track(1025)).
position((60,52),cell,track(1025)).
position((60,53),cell,track(33825)).
position((60,54),cell,track(4608)).
position((60,55),cell,track(0)).
position((60,56),cell,track(0)).
position((60,57),cell,track(0)).
position((60,58),cell,track(0)).
position((60,59),cell,track(0)).
position((60,5),cell,track(0)).
position((60,60),cell,track(0)).
position((60,61),cell,track(0)).
position((60,62),cell,track(0)).
position((60,63),cell,track(0)).
position((60,64),cell,track(0)).
position((60,65),cell,track(0)).
position((60,66),cell,track(0)).
position((60,67),cell,track(0)).
position((60,68),cell,track(0)).
position((60,69),cell,track(0)).
position((60,6),cell,track(0)).
position((60,70),cell,track(0)).
position((60,71),cell,track(0)).
position((60,72),cell,track(0)).
position((60,73),cell,track(0)).
position((60,74),cell,track(0)).
position((60,75),cell,track(0)).
position((60,76),cell,track(0)).
position((60,77),cell,track(0)).
position((60,78),cell,track(0)).
position((60,79),cell,track(0)).
position((60,7),cell,track(0)).
position((60,8),cell,track(0)).
position((60,9),cell,track(0)).
position((6,0),cell,track(0)).
position((6,10),cell,track(0)).
position((61,0),cell,track(0)).
position((61,10),cell,track(0)).
position((61,11),cell,track(0)).
position((61,12),cell,track(0)).
position((61,13),cell,track(0)).
position((61,14),cell,track(0)).
position((61,15),cell,track(0)).
position((61,16),cell,track(0)).
position((61,17),cell,track(0)).
position((61,18),cell,track(0)).
position((61,19),cell,track(0)).
position((6,11),cell,track(0)).
position((61,1),cell,track(0)).
position((61,20),cell,track(0)).
position((61,21),cell,track(0)).
position((61,22),cell,track(0)).
position((61,23),cell,track(0)).
position((61,24),cell,track(0)).
position((61,25),cell,track(0)).
position((61,26),cell,track(0)).
position((61,27),cell,track(0)).
position((61,28),cell,track(0)).
position((61,29),cell,track(0)).
position((6,12),cell,track(0)).
position((61,2),cell,track(0)).
position((61,30),cell,track(0)).
position((61,31),cell,track(0)).
position((61,32),cell,track(0)).
position((61,33),cell,track(0)).
position((61,34),cell,track(0)).
position((61,35),cell,track(0)).
position((61,36),cell,track(0)).
position((61,37),cell,track(0)).
position((61,38),cell,track(32800)).
position((61,39),cell,track(0)).
position((6,13),cell,track(0)).
position((61,3),cell,track(0)).
position((61,40),cell,track(0)).
position((61,41),cell,track(0)).
position((61,42),cell,track(0)).
position((61,43),cell,track(0)).
position((61,44),cell,track(0)).
position((61,45),cell,track(32800)).
position((61,46),cell,track(0)).
position((61,47),cell,track(0)).
position((61,48),cell,track(0)).
position((61,49),cell,track(0)).
position((6,14),cell,track(0)).
position((61,4),cell,track(0)).
position((61,50),cell,track(0)).
position((61,51),cell,track(0)).
position((61,52),cell,track(0)).
position((61,53),cell,track(32800)).
position((61,54),cell,track(32800)).
position((61,55),cell,track(0)).
position((61,56),cell,track(0)).
position((61,57),cell,track(0)).
position((61,58),cell,track(0)).
position((61,59),cell,track(0)).
position((6,15),cell,track(0)).
position((61,5),cell,track(0)).
position((61,60),cell,track(0)).
position((61,61),cell,track(0)).
position((61,62),cell,track(0)).
position((61,63),cell,track(0)).
position((61,64),cell,track(0)).
position((61,65),cell,track(0)).
position((61,66),cell,track(0)).
position((61,67),cell,track(0)).
position((61,68),cell,track(0)).
position((61,69),cell,track(0)).
position((6,16),cell,track(0)).
position((61,6),cell,track(0)).
position((61,70),cell,track(0)).
position((61,71),cell,track(0)).
position((61,72),cell,track(0)).
position((61,73),cell,track(0)).
position((61,74),cell,track(0)).
position((61,75),cell,track(0)).
position((61,76),cell,track(0)).
position((61,77),cell,track(0)).
position((61,78),cell,track(0)).
position((61,79),cell,track(0)).
position((6,17),cell,track(0)).
position((61,7),cell,track(0)).
position((6,18),cell,track(0)).
position((61,8),cell,track(0)).
position((6,19),cell,track(0)).
position((61,9),cell,track(0)).
position((6,1),cell,track(0)).
position((6,20),cell,track(0)).
position((62,0),cell,track(0)).
position((62,10),cell,track(0)).
position((62,11),cell,track(0)).
position((62,12),cell,track(0)).
position((62,13),cell,track(0)).
position((62,14),cell,track(0)).
position((62,15),cell,track(0)).
position((62,16),cell,track(0)).
position((62,17),cell,track(0)).
position((62,18),cell,track(0)).
position((62,19),cell,track(0)).
position((6,21),cell,track(0)).
position((62,1),cell,track(0)).
position((62,20),cell,track(0)).
position((62,21),cell,track(0)).
position((62,22),cell,track(0)).
position((62,23),cell,track(0)).
position((62,24),cell,track(0)).
position((62,25),cell,track(0)).
position((62,26),cell,track(0)).
position((62,27),cell,track(0)).
position((62,28),cell,track(0)).
position((62,29),cell,track(0)).
position((6,22),cell,track(0)).
position((62,2),cell,track(0)).
position((62,30),cell,track(0)).
position((62,31),cell,track(0)).
position((62,32),cell,track(0)).
position((62,33),cell,track(0)).
position((62,34),cell,track(0)).
position((62,35),cell,track(0)).
position((62,36),cell,track(0)).
position((62,37),cell,track(0)).
position((62,38),cell,track(72)).
position((62,39),cell,track(1025)).
position((6,23),cell,track(0)).
position((62,3),cell,track(0)).
position((62,40),cell,track(1025)).
position((62,41),cell,track(1025)).
position((62,42),cell,track(1025)).
position((62,43),cell,track(4608)).
position((62,44),cell,track(0)).
position((62,45),cell,track(32800)).
position((62,46),cell,track(0)).
position((62,47),cell,track(0)).
position((62,48),cell,track(0)).
position((62,49),cell,track(0)).
position((6,24),cell,track(0)).
position((62,4),cell,track(0)).
position((62,50),cell,track(0)).
position((62,51),cell,track(0)).
position((62,52),cell,track(0)).
position((62,53),cell,track(32800)).
position((62,54),cell,track(72)).
position((62,55),cell,track(4608)).
position((62,56),cell,track(0)).
position((62,57),cell,track(0)).
position((62,58),cell,track(0)).
position((62,59),cell,track(0)).
position((6,25),cell,track(0)).
position((62,5),cell,track(0)).
position((62,60),cell,track(0)).
position((62,61),cell,track(0)).
position((62,62),cell,track(0)).
position((62,63),cell,track(0)).
position((62,64),cell,track(0)).
position((62,65),cell,track(0)).
position((62,66),cell,track(0)).
position((62,67),cell,track(0)).
position((62,68),cell,track(0)).
position((62,69),cell,track(0)).
position((6,26),cell,track(0)).
position((62,6),cell,track(0)).
position((62,70),cell,track(0)).
position((62,71),cell,track(0)).
position((62,72),cell,track(0)).
position((62,73),cell,track(0)).
position((62,74),cell,track(0)).
position((62,75),cell,track(0)).
position((62,76),cell,track(0)).
position((62,77),cell,track(0)).
position((62,78),cell,track(0)).
position((62,79),cell,track(0)).
position((6,27),cell,track(0)).
position((62,7),cell,track(0)).
position((6,28),cell,track(0)).
position((62,8),cell,track(0)).
position((6,29),cell,track(0)).
position((62,9),cell,track(0)).
position((6,2),cell,track(0)).
position((6,30),cell,track(0)).
position((63,0),cell,track(0)).
position((63,10),cell,track(0)).
position((63,11),cell,track(0)).
position((63,12),cell,track(0)).
position((63,13),cell,track(0)).
position((63,14),cell,track(0)).
position((63,15),cell,track(0)).
position((63,16),cell,track(0)).
position((63,17),cell,track(0)).
position((63,18),cell,track(0)).
position((63,19),cell,track(0)).
position((6,31),cell,track(0)).
position((63,1),cell,track(0)).
position((63,20),cell,track(0)).
position((63,21),cell,track(0)).
position((63,22),cell,track(0)).
position((63,23),cell,track(0)).
position((63,24),cell,track(0)).
position((63,25),cell,track(0)).
position((63,26),cell,track(0)).
position((63,27),cell,track(0)).
position((63,28),cell,track(0)).
position((63,29),cell,track(0)).
position((6,32),cell,track(0)).
position((63,2),cell,track(0)).
position((63,30),cell,track(0)).
position((63,31),cell,track(0)).
position((63,32),cell,track(0)).
position((63,33),cell,track(0)).
position((63,34),cell,track(0)).
position((63,35),cell,track(0)).
position((63,36),cell,track(0)).
position((63,37),cell,track(0)).
position((63,38),cell,track(0)).
position((63,39),cell,track(0)).
position((6,33),cell,track(0)).
position((63,3),cell,track(0)).
position((63,40),cell,track(0)).
position((63,41),cell,track(0)).
position((63,42),cell,track(0)).
position((63,43),cell,track(32800)).
position((63,44),cell,track(0)).
position((63,45),cell,track(32800)).
position((63,46),cell,track(0)).
position((63,47),cell,track(0)).
position((63,48),cell,track(0)).
position((63,49),cell,track(0)).
position((6,34),cell,track(0)).
position((63,4),cell,track(0)).
position((63,50),cell,track(0)).
position((63,51),cell,track(0)).
position((63,52),cell,track(0)).
position((63,53),cell,track(32800)).
position((63,54),cell,track(0)).
position((63,55),cell,track(72)).
position((63,56),cell,track(4608)).
position((63,57),cell,track(0)).
position((63,58),cell,track(0)).
position((63,59),cell,track(0)).
position((6,35),cell,track(0)).
position((63,5),cell,track(0)).
position((63,60),cell,track(0)).
position((63,61),cell,track(0)).
position((63,62),cell,track(0)).
position((63,63),cell,track(0)).
position((63,64),cell,track(0)).
position((63,65),cell,track(0)).
position((63,66),cell,track(0)).
position((63,67),cell,track(0)).
position((63,68),cell,track(0)).
position((63,69),cell,track(0)).
position((6,36),cell,track(0)).
position((63,6),cell,track(0)).
position((63,70),cell,track(0)).
position((63,71),cell,track(0)).
position((63,72),cell,track(0)).
position((63,73),cell,track(0)).
position((63,74),cell,track(0)).
position((63,75),cell,track(0)).
position((63,76),cell,track(0)).
position((63,77),cell,track(0)).
position((63,78),cell,track(0)).
position((63,79),cell,track(0)).
position((6,37),cell,track(0)).
position((63,7),cell,track(0)).
position((6,38),cell,track(0)).
position((63,8),cell,track(0)).
position((6,39),cell,track(0)).
position((63,9),cell,track(0)).
position((6,3),cell,track(0)).
position((6,40),cell,track(0)).
position((64,0),cell,track(0)).
position((64,10),cell,track(0)).
position((64,11),cell,track(0)).
position((64,12),cell,track(0)).
position((64,13),cell,track(0)).
position((64,14),cell,track(0)).
position((64,15),cell,track(0)).
position((64,16),cell,track(0)).
position((64,17),cell,track(0)).
position((64,18),cell,track(0)).
position((64,19),cell,track(0)).
position((6,41),cell,track(0)).
position((64,1),cell,track(0)).
position((64,20),cell,track(0)).
position((64,21),cell,track(0)).
position((64,22),cell,track(0)).
position((64,23),cell,track(0)).
position((64,24),cell,track(0)).
position((64,25),cell,track(0)).
position((64,26),cell,track(0)).
position((64,27),cell,track(0)).
position((64,28),cell,track(0)).
position((64,29),cell,track(0)).
position((6,42),cell,track(0)).
position((64,2),cell,track(0)).
position((64,30),cell,track(0)).
position((64,31),cell,track(0)).
position((64,32),cell,track(0)).
position((64,33),cell,track(0)).
position((64,34),cell,track(0)).
position((64,35),cell,track(0)).
position((64,36),cell,track(0)).
position((64,37),cell,track(0)).
position((64,38),cell,track(0)).
position((64,39),cell,track(0)).
position((6,43),cell,track(0)).
position((64,3),cell,track(0)).
position((64,40),cell,track(0)).
position((64,41),cell,track(0)).
position((64,42),cell,track(0)).
position((64,43),cell,track(32800)).
position((64,44),cell,track(0)).
position((64,45),cell,track(32800)).
position((64,46),cell,track(0)).
position((64,47),cell,track(0)).
position((64,48),cell,track(0)).
position((64,49),cell,track(0)).
position((6,44),cell,track(0)).
position((64,4),cell,track(0)).
position((64,50),cell,track(0)).
position((64,51),cell,track(0)).
position((64,52),cell,track(0)).
position((64,53),cell,track(72)).
position((64,54),cell,track(1025)).
position((64,55),cell,track(4608)).
position((64,56),cell,track(32800)).
position((64,57),cell,track(0)).
position((64,58),cell,track(0)).
position((64,59),cell,track(0)).
position((6,45),cell,track(0)).
position((64,5),cell,track(0)).
position((64,60),cell,track(0)).
position((64,61),cell,track(0)).
position((64,62),cell,track(0)).
position((64,63),cell,track(0)).
position((64,64),cell,track(0)).
position((64,65),cell,track(0)).
position((64,66),cell,track(0)).
position((64,67),cell,track(0)).
position((64,68),cell,track(0)).
position((64,69),cell,track(0)).
position((6,46),cell,track(0)).
position((64,6),cell,track(0)).
position((64,70),cell,track(0)).
position((64,71),cell,track(0)).
position((64,72),cell,track(0)).
position((64,73),cell,track(0)).
position((64,74),cell,track(0)).
position((64,75),cell,track(0)).
position((64,76),cell,track(0)).
position((64,77),cell,track(0)).
position((64,78),cell,track(0)).
position((64,79),cell,track(0)).
position((6,47),cell,track(0)).
position((64,7),cell,track(0)).
position((6,48),cell,track(0)).
position((64,8),cell,track(0)).
position((6,49),cell,track(0)).
position((64,9),cell,track(0)).
position((6,4),cell,track(0)).
position((6,50),cell,track(0)).
position((65,0),cell,track(0)).
position((65,10),cell,track(0)).
position((65,11),cell,track(0)).
position((65,12),cell,track(0)).
position((65,13),cell,track(0)).
position((65,14),cell,track(0)).
position((65,15),cell,track(0)).
position((65,16),cell,track(0)).
position((65,17),cell,track(0)).
position((65,18),cell,track(0)).
position((65,19),cell,track(0)).
position((6,51),cell,track(0)).
position((65,1),cell,track(0)).
position((65,20),cell,track(0)).
position((65,21),cell,track(0)).
position((65,22),cell,track(0)).
position((65,23),cell,track(0)).
position((65,24),cell,track(0)).
position((65,25),cell,track(0)).
position((65,26),cell,track(0)).
position((65,27),cell,track(0)).
position((65,28),cell,track(0)).
position((65,29),cell,track(0)).
position((6,52),cell,track(0)).
position((65,2),cell,track(0)).
position((65,30),cell,track(0)).
position((65,31),cell,track(0)).
position((65,32),cell,track(0)).
position((65,33),cell,track(0)).
position((65,34),cell,track(0)).
position((65,35),cell,track(0)).
position((65,36),cell,track(0)).
position((65,37),cell,track(0)).
position((65,38),cell,track(0)).
position((65,39),cell,track(0)).
position((6,53),cell,track(0)).
position((65,3),cell,track(0)).
position((65,40),cell,track(0)).
position((65,41),cell,track(0)).
position((65,42),cell,track(0)).
position((65,43),cell,track(32800)).
position((65,44),cell,track(0)).
position((65,45),cell,track(32800)).
position((65,46),cell,track(0)).
position((65,47),cell,track(0)).
position((65,48),cell,track(0)).
position((65,49),cell,track(0)).
position((6,54),cell,track(0)).
position((65,4),cell,track(0)).
position((65,50),cell,track(0)).
position((65,51),cell,track(0)).
position((65,52),cell,track(0)).
position((65,53),cell,track(0)).
position((65,54),cell,track(0)).
position((65,55),cell,track(32800)).
position((65,56),cell,track(32800)).
position((65,57),cell,track(0)).
position((65,58),cell,track(0)).
position((65,59),cell,track(0)).
position((6,55),cell,track(0)).
position((65,5),cell,track(0)).
position((65,60),cell,track(0)).
position((65,61),cell,track(0)).
position((65,62),cell,track(0)).
position((65,63),cell,track(0)).
position((65,64),cell,track(0)).
position((65,65),cell,track(0)).
position((65,66),cell,track(0)).
position((65,67),cell,track(0)).
position((65,68),cell,track(0)).
position((65,69),cell,track(0)).
position((6,56),cell,track(0)).
position((65,6),cell,track(0)).
position((65,70),cell,track(0)).
position((65,71),cell,track(0)).
position((65,72),cell,track(0)).
position((65,73),cell,track(0)).
position((65,74),cell,track(0)).
position((65,75),cell,track(0)).
position((65,76),cell,track(0)).
position((65,77),cell,track(0)).
position((65,78),cell,track(0)).
position((65,79),cell,track(0)).
position((6,57),cell,track(0)).
position((65,7),cell,track(0)).
position((6,58),cell,track(0)).
position((65,8),cell,track(0)).
position((6,59),cell,track(0)).
position((65,9),cell,track(0)).
position((6,5),cell,track(0)).
position((6,60),cell,track(0)).
position((66,0),cell,track(0)).
position((66,10),cell,track(0)).
position((66,11),cell,track(0)).
position((66,12),cell,track(0)).
position((66,13),cell,track(0)).
position((66,14),cell,track(0)).
position((66,15),cell,track(0)).
position((66,16),cell,track(0)).
position((66,17),cell,track(0)).
position((66,18),cell,track(0)).
position((66,19),cell,track(0)).
position((6,61),cell,track(0)).
position((66,1),cell,track(0)).
position((66,20),cell,track(0)).
position((66,21),cell,track(0)).
position((66,22),cell,track(0)).
position((66,23),cell,track(0)).
position((66,24),cell,track(0)).
position((66,25),cell,track(0)).
position((66,26),cell,track(0)).
position((66,27),cell,track(0)).
position((66,28),cell,track(0)).
position((66,29),cell,track(0)).
position((6,62),cell,track(0)).
position((66,2),cell,track(0)).
position((66,30),cell,track(0)).
position((66,31),cell,track(0)).
position((66,32),cell,track(0)).
position((66,33),cell,track(0)).
position((66,34),cell,track(0)).
position((66,35),cell,track(0)).
position((66,36),cell,track(0)).
position((66,37),cell,track(0)).
position((66,38),cell,track(0)).
position((66,39),cell,track(0)).
position((6,63),cell,track(0)).
position((66,3),cell,track(0)).
position((66,40),cell,track(0)).
position((66,41),cell,track(0)).
position((66,42),cell,track(0)).
position((66,43),cell,track(32800)).
position((66,44),cell,track(0)).
position((66,45),cell,track(32800)).
position((66,46),cell,track(0)).
position((66,47),cell,track(0)).
position((66,48),cell,track(0)).
position((66,49),cell,track(0)).
position((6,64),cell,track(0)).
position((66,4),cell,track(0)).
position((66,50),cell,track(0)).
position((66,51),cell,track(0)).
position((66,52),cell,track(0)).
position((66,53),cell,track(0)).
position((66,54),cell,track(0)).
position((66,55),cell,track(32872)).
position((66,56),cell,track(37408)).
position((66,57),cell,track(0)).
position((66,58),cell,track(0)).
position((66,59),cell,track(0)).
position((6,65),cell,track(0)).
position((66,5),cell,track(0)).
position((66,60),cell,track(0)).
position((66,61),cell,track(0)).
position((66,62),cell,track(0)).
position((66,63),cell,track(0)).
position((66,64),cell,track(0)).
position((66,65),cell,track(0)).
position((66,66),cell,track(0)).
position((66,67),cell,track(0)).
position((66,68),cell,track(0)).
position((66,69),cell,track(0)).
position((6,66),cell,track(0)).
position((66,6),cell,track(0)).
position((66,70),cell,track(0)).
position((66,71),cell,track(0)).
position((66,72),cell,track(0)).
position((66,73),cell,track(0)).
position((66,74),cell,track(0)).
position((66,75),cell,track(0)).
position((66,76),cell,track(0)).
position((66,77),cell,track(0)).
position((66,78),cell,track(0)).
position((66,79),cell,track(0)).
position((6,67),cell,track(0)).
position((66,7),cell,track(0)).
position((6,68),cell,track(0)).
position((66,8),cell,track(0)).
position((6,69),cell,track(0)).
position((66,9),cell,track(0)).
position((6,6),cell,track(0)).
position((6,70),cell,track(0)).
position((67,0),cell,track(0)).
position((67,10),cell,track(0)).
position((67,11),cell,track(0)).
position((67,12),cell,track(0)).
position((67,13),cell,track(0)).
position((67,14),cell,track(0)).
position((67,15),cell,track(0)).
position((67,16),cell,track(0)).
position((67,17),cell,track(0)).
position((67,18),cell,track(0)).
position((67,19),cell,track(0)).
position((6,71),cell,track(0)).
position((67,1),cell,track(0)).
position((67,20),cell,track(0)).
position((67,21),cell,track(0)).
position((67,22),cell,track(0)).
position((67,23),cell,track(0)).
position((67,24),cell,track(0)).
position((67,25),cell,track(0)).
position((67,26),cell,track(0)).
position((67,27),cell,track(0)).
position((67,28),cell,track(0)).
position((67,29),cell,track(0)).
position((6,72),cell,track(0)).
position((67,2),cell,track(0)).
position((67,30),cell,track(0)).
position((67,31),cell,track(0)).
position((67,32),cell,track(0)).
position((67,33),cell,track(0)).
position((67,34),cell,track(0)).
position((67,35),cell,track(0)).
position((67,36),cell,track(0)).
position((67,37),cell,track(0)).
position((67,38),cell,track(0)).
position((67,39),cell,track(0)).
position((6,73),cell,track(0)).
position((67,3),cell,track(0)).
position((67,40),cell,track(0)).
position((67,41),cell,track(0)).
position((67,42),cell,track(0)).
position((67,43),cell,track(32800)).
position((67,44),cell,track(0)).
position((67,45),cell,track(32800)).
position((67,46),cell,track(0)).
position((67,47),cell,track(0)).
position((67,48),cell,track(0)).
position((67,49),cell,track(0)).
position((6,74),cell,track(0)).
position((67,4),cell,track(0)).
position((67,50),cell,track(0)).
position((67,51),cell,track(0)).
position((67,52),cell,track(0)).
position((67,53),cell,track(0)).
position((67,54),cell,track(0)).
position((67,55),cell,track(49186)).
position((67,56),cell,track(34864)).
position((67,57),cell,track(0)).
position((67,58),cell,track(0)).
position((67,59),cell,track(0)).
position((6,75),cell,track(0)).
position((67,5),cell,track(0)).
position((67,60),cell,track(0)).
position((67,61),cell,track(0)).
position((67,62),cell,track(0)).
position((67,63),cell,track(0)).
position((67,64),cell,track(0)).
position((67,65),cell,track(0)).
position((67,66),cell,track(0)).
position((67,67),cell,track(0)).
position((67,68),cell,track(0)).
position((67,69),cell,track(0)).
position((6,76),cell,track(0)).
position((67,6),cell,track(0)).
position((67,70),cell,track(0)).
position((67,71),cell,track(0)).
position((67,72),cell,track(0)).
position((67,73),cell,track(0)).
position((67,74),cell,track(0)).
position((67,75),cell,track(0)).
position((67,76),cell,track(0)).
position((67,77),cell,track(0)).
position((67,78),cell,track(0)).
position((67,79),cell,track(0)).
position((6,77),cell,track(0)).
position((67,7),cell,track(0)).
position((6,78),cell,track(0)).
position((67,8),cell,track(0)).
position((6,79),cell,track(0)).
position((67,9),cell,track(0)).
position((6,7),cell,track(0)).
position((68,0),cell,track(0)).
position((68,10),cell,track(0)).
position((68,11),cell,track(0)).
position((68,12),cell,track(0)).
position((68,13),cell,track(0)).
position((68,14),cell,track(0)).
position((68,15),cell,track(0)).
position((68,16),cell,track(0)).
position((68,17),cell,track(0)).
position((68,18),cell,track(0)).
position((68,19),cell,track(0)).
position((68,1),cell,track(0)).
position((68,20),cell,track(0)).
position((68,21),cell,track(0)).
position((68,22),cell,track(0)).
position((68,23),cell,track(0)).
position((68,24),cell,track(0)).
position((68,25),cell,track(0)).
position((68,26),cell,track(0)).
position((68,27),cell,track(0)).
position((68,28),cell,track(0)).
position((68,29),cell,track(0)).
position((68,2),cell,track(0)).
position((68,30),cell,track(0)).
position((68,31),cell,track(0)).
position((68,32),cell,track(0)).
position((68,33),cell,track(0)).
position((68,34),cell,track(0)).
position((68,35),cell,track(0)).
position((68,36),cell,track(0)).
position((68,37),cell,track(0)).
position((68,38),cell,track(0)).
position((68,39),cell,track(0)).
position((68,3),cell,track(0)).
position((68,40),cell,track(0)).
position((68,41),cell,track(0)).
position((68,42),cell,track(0)).
position((68,43),cell,track(32800)).
position((68,44),cell,track(0)).
position((68,45),cell,track(72)).
position((68,46),cell,track(4608)).
position((68,47),cell,track(0)).
position((68,48),cell,track(0)).
position((68,49),cell,track(0)).
position((68,4),cell,track(0)).
position((68,50),cell,track(0)).
position((68,51),cell,track(0)).
position((68,52),cell,track(0)).
position((68,53),cell,track(0)).
position((68,54),cell,track(16386)).
position((68,55),cell,track(34864)).
position((68,56),cell,track(32872)).
position((68,57),cell,track(4608)).
position((68,58),cell,track(0)).
position((68,59),cell,track(0)).
position((68,5),cell,track(0)).
position((68,60),cell,track(0)).
position((68,61),cell,track(0)).
position((68,62),cell,track(0)).
position((68,63),cell,track(0)).
position((68,64),cell,track(0)).
position((68,65),cell,track(0)).
position((68,66),cell,track(0)).
position((68,67),cell,track(0)).
position((68,68),cell,track(0)).
position((68,69),cell,track(0)).
position((68,6),cell,track(0)).
position((68,70),cell,track(0)).
position((68,71),cell,track(0)).
position((68,72),cell,track(0)).
position((68,73),cell,track(0)).
position((68,74),cell,track(0)).
position((68,75),cell,track(0)).
position((68,76),cell,track(0)).
position((68,77),cell,track(0)).
position((68,78),cell,track(0)).
position((68,79),cell,track(0)).
position((68,7),cell,track(0)).
position((68,8),cell,track(0)).
position((68,9),cell,track(0)).
position((6,8),cell,track(0)).
position((69,0),cell,track(0)).
position((69,10),cell,track(0)).
position((69,11),cell,track(0)).
position((69,12),cell,track(0)).
position((69,13),cell,track(0)).
position((69,14),cell,track(0)).
position((69,15),cell,track(0)).
position((69,16),cell,track(0)).
position((69,17),cell,track(0)).
position((69,18),cell,track(0)).
position((69,19),cell,track(0)).
position((69,1),cell,track(0)).
position((69,20),cell,track(0)).
position((69,21),cell,track(0)).
position((69,22),cell,track(0)).
position((69,23),cell,track(0)).
position((69,24),cell,track(0)).
position((69,25),cell,track(0)).
position((69,26),cell,track(0)).
position((69,27),cell,track(0)).
position((69,28),cell,track(0)).
position((69,29),cell,track(0)).
position((69,2),cell,track(0)).
position((69,30),cell,track(0)).
position((69,31),cell,track(0)).
position((69,32),cell,track(0)).
position((69,33),cell,track(0)).
position((69,34),cell,track(0)).
position((69,35),cell,track(0)).
position((69,36),cell,track(0)).
position((69,37),cell,track(0)).
position((69,38),cell,track(0)).
position((69,39),cell,track(0)).
position((69,3),cell,track(0)).
position((69,40),cell,track(0)).
position((69,41),cell,track(0)).
position((69,42),cell,track(0)).
position((69,43),cell,track(32800)).
position((69,44),cell,track(0)).
position((69,45),cell,track(0)).
position((69,46),cell,track(32800)).
position((69,47),cell,track(0)).
position((69,48),cell,track(0)).
position((69,49),cell,track(0)).
position((69,4),cell,track(0)).
position((69,50),cell,track(0)).
position((69,51),cell,track(0)).
position((69,52),cell,track(0)).
position((69,53),cell,track(0)).
position((69,54),cell,track(32800)).
position((69,55),cell,track(32800)).
position((69,56),cell,track(32800)).
position((69,57),cell,track(32800)).
position((69,57),end,train(0)).
position((69,58),cell,track(0)).
position((69,59),cell,track(0)).
position((69,5),cell,track(0)).
position((69,60),cell,track(0)).
position((69,61),cell,track(0)).
position((69,62),cell,track(0)).
position((69,63),cell,track(0)).
position((69,64),cell,track(0)).
position((69,65),cell,track(0)).
position((69,66),cell,track(0)).
position((69,67),cell,track(0)).
position((69,68),cell,track(0)).
position((69,69),cell,track(0)).
position((69,6),cell,track(0)).
position((69,70),cell,track(0)).
position((69,71),cell,track(0)).
position((69,72),cell,track(0)).
position((69,73),cell,track(0)).
position((69,74),cell,track(0)).
position((69,75),cell,track(0)).
position((69,76),cell,track(0)).
position((69,77),cell,track(0)).
position((69,78),cell,track(0)).
position((69,79),cell,track(0)).
position((69,7),cell,track(0)).
position((69,8),cell,track(0)).
position((69,9),cell,track(0)).
position((6,9),cell,track(0)).
position((70,0),cell,track(0)).
position((70,10),cell,track(0)).
position((70,11),cell,track(0)).
position((70,12),cell,track(0)).
position((70,13),cell,track(0)).
position((70,14),cell,track(0)).
position((70,15),cell,track(0)).
position((70,16),cell,track(0)).
position((70,17),cell,track(0)).
position((70,18),cell,track(0)).
position((70,19),cell,track(0)).
position((70,1),cell,track(0)).
position((70,20),cell,track(0)).
position((70,21),cell,track(0)).
position((70,22),cell,track(0)).
position((70,23),cell,track(0)).
position((70,24),cell,track(0)).
position((70,25),cell,track(0)).
position((70,26),cell,track(0)).
position((70,27),cell,track(0)).
position((70,28),cell,track(0)).
position((70,29),cell,track(0)).
position((70,2),cell,track(0)).
position((70,30),cell,track(0)).
position((70,31),cell,track(0)).
position((70,32),cell,track(0)).
position((70,33),cell,track(0)).
position((70,34),cell,track(0)).
position((70,35),cell,track(0)).
position((70,36),cell,track(0)).
position((70,37),cell,track(0)).
position((70,38),cell,track(0)).
position((70,39),cell,track(0)).
position((70,3),cell,track(0)).
position((70,40),cell,track(0)).
position((70,41),cell,track(0)).
position((70,42),cell,track(0)).
position((70,43),cell,track(72)).
position((70,44),cell,track(1025)).
position((70,45),cell,track(4608)).
position((70,46),cell,track(72)).
position((70,47),cell,track(1025)).
position((70,48),cell,track(4608)).
position((70,49),cell,track(0)).
position((70,4),cell,track(0)).
position((70,50),cell,track(0)).
position((70,51),cell,track(0)).
position((70,52),cell,track(0)).
position((70,53),cell,track(0)).
position((70,54),cell,track(72)).
position((70,55),cell,track(37408)).
position((70,56),cell,track(49186)).
position((70,57),cell,track(2064)).
position((70,58),cell,track(0)).
position((70,59),cell,track(0)).
position((70,5),cell,track(0)).
position((70,60),cell,track(0)).
position((70,61),cell,track(0)).
position((70,62),cell,track(0)).
position((70,63),cell,track(0)).
position((70,64),cell,track(0)).
position((70,65),cell,track(0)).
position((70,66),cell,track(0)).
position((70,67),cell,track(0)).
position((70,68),cell,track(0)).
position((70,69),cell,track(0)).
position((70,6),cell,track(0)).
position((70,70),cell,track(0)).
position((70,71),cell,track(0)).
position((70,72),cell,track(0)).
position((70,73),cell,track(0)).
position((70,74),cell,track(0)).
position((70,75),cell,track(0)).
position((70,76),cell,track(0)).
position((70,77),cell,track(0)).
position((70,78),cell,track(0)).
position((70,79),cell,track(0)).
position((70,7),cell,track(0)).
position((70,8),cell,track(0)).
position((70,9),cell,track(0)).
position((7,0),cell,track(0)).
position((7,10),cell,track(0)).
position((71,0),cell,track(0)).
position((71,10),cell,track(0)).
position((71,11),cell,track(0)).
position((71,12),cell,track(0)).
position((71,13),cell,track(0)).
position((71,14),cell,track(0)).
position((71,15),cell,track(0)).
position((71,16),cell,track(0)).
position((71,17),cell,track(0)).
position((71,18),cell,track(0)).
position((71,19),cell,track(0)).
position((7,11),cell,track(0)).
position((71,1),cell,track(0)).
position((71,20),cell,track(0)).
position((71,21),cell,track(0)).
position((71,22),cell,track(0)).
position((71,23),cell,track(0)).
position((71,24),cell,track(0)).
position((71,25),cell,track(0)).
position((71,26),cell,track(0)).
position((71,27),cell,track(0)).
position((71,28),cell,track(0)).
position((71,29),cell,track(0)).
position((7,12),cell,track(0)).
position((71,2),cell,track(0)).
position((71,30),cell,track(0)).
position((71,31),cell,track(0)).
position((71,32),cell,track(0)).
position((71,33),cell,track(0)).
position((71,34),cell,track(0)).
position((71,35),cell,track(0)).
position((71,36),cell,track(0)).
position((71,37),cell,track(0)).
position((71,38),cell,track(0)).
position((71,39),cell,track(0)).
position((7,13),cell,track(0)).
position((71,3),cell,track(0)).
position((71,40),cell,track(0)).
position((71,41),cell,track(0)).
position((71,42),cell,track(0)).
position((71,43),cell,track(0)).
position((71,44),cell,track(0)).
position((71,45),cell,track(72)).
position((71,46),cell,track(1025)).
position((71,47),cell,track(4608)).
position((71,48),cell,track(32800)).
position((71,49),cell,track(0)).
position((7,14),cell,track(0)).
position((71,4),cell,track(0)).
position((71,50),cell,track(0)).
position((71,51),cell,track(0)).
position((71,52),cell,track(0)).
position((71,53),cell,track(0)).
position((71,54),cell,track(0)).
position((71,55),cell,track(32872)).
position((71,56),cell,track(37408)).
position((71,57),cell,track(0)).
position((71,58),cell,track(0)).
position((71,59),cell,track(0)).
position((7,15),cell,track(0)).
position((71,5),cell,track(0)).
position((71,60),cell,track(0)).
position((71,61),cell,track(0)).
position((71,62),cell,track(0)).
position((71,63),cell,track(0)).
position((71,64),cell,track(0)).
position((71,65),cell,track(0)).
position((71,66),cell,track(0)).
position((71,67),cell,track(0)).
position((71,68),cell,track(0)).
position((71,69),cell,track(0)).
position((7,16),cell,track(0)).
position((71,6),cell,track(0)).
position((71,70),cell,track(0)).
position((71,71),cell,track(0)).
position((71,72),cell,track(0)).
position((71,73),cell,track(0)).
position((71,74),cell,track(0)).
position((71,75),cell,track(0)).
position((71,76),cell,track(0)).
position((71,77),cell,track(0)).
position((71,78),cell,track(0)).
position((71,79),cell,track(0)).
position((7,17),cell,track(0)).
position((71,7),cell,track(0)).
position((7,18),cell,track(0)).
position((71,8),cell,track(0)).
position((7,19),cell,track(0)).
position((71,9),cell,track(0)).
position((7,1),cell,track(0)).
position((7,20),cell,track(0)).
position((72,0),cell,track(0)).
position((72,10),cell,track(0)).
position((72,11),cell,track(0)).
position((72,12),cell,track(0)).
position((72,13),cell,track(0)).
position((72,14),cell,track(0)).
position((72,15),cell,track(0)).
position((72,16),cell,track(0)).
position((72,17),cell,track(0)).
position((72,18),cell,track(0)).
position((72,19),cell,track(0)).
position((7,21),cell,track(0)).
position((72,1),cell,track(0)).
position((72,20),cell,track(0)).
position((72,21),cell,track(0)).
position((72,22),cell,track(0)).
position((72,23),cell,track(0)).
position((72,24),cell,track(0)).
position((72,25),cell,track(0)).
position((72,26),cell,track(0)).
position((72,27),cell,track(0)).
position((72,28),cell,track(0)).
position((72,29),cell,track(0)).
position((7,22),cell,track(0)).
position((72,2),cell,track(0)).
position((72,30),cell,track(0)).
position((72,31),cell,track(0)).
position((72,32),cell,track(0)).
position((72,33),cell,track(0)).
position((72,34),cell,track(0)).
position((72,35),cell,track(0)).
position((72,36),cell,track(0)).
position((72,37),cell,track(0)).
position((72,38),cell,track(0)).
position((72,39),cell,track(0)).
position((7,23),cell,track(0)).
position((72,3),cell,track(0)).
position((72,40),cell,track(0)).
position((72,41),cell,track(0)).
position((72,42),cell,track(0)).
position((72,43),cell,track(0)).
position((72,44),cell,track(0)).
position((72,45),cell,track(0)).
position((72,46),cell,track(0)).
position((72,47),cell,track(32800)).
position((72,48),cell,track(72)).
position((72,49),cell,track(4608)).
position((7,24),cell,track(0)).
position((72,4),cell,track(0)).
position((72,50),cell,track(0)).
position((72,51),cell,track(0)).
position((72,52),cell,track(0)).
position((72,53),cell,track(0)).
position((72,54),cell,track(0)).
position((72,55),cell,track(49186)).
position((72,56),cell,track(34864)).
position((72,57),cell,track(0)).
position((72,58),cell,track(0)).
position((72,59),cell,track(0)).
position((7,25),cell,track(0)).
position((72,5),cell,track(0)).
position((72,60),cell,track(0)).
position((72,61),cell,track(0)).
position((72,62),cell,track(0)).
position((72,63),cell,track(0)).
position((72,64),cell,track(0)).
position((72,65),cell,track(0)).
position((72,66),cell,track(0)).
position((72,67),cell,track(0)).
position((72,68),cell,track(0)).
position((72,69),cell,track(0)).
position((7,26),cell,track(0)).
position((72,6),cell,track(0)).
position((72,70),cell,track(0)).
position((72,71),cell,track(0)).
position((72,72),cell,track(0)).
position((72,73),cell,track(0)).
position((72,74),cell,track(0)).
position((72,75),cell,track(0)).
position((72,76),cell,track(0)).
position((72,77),cell,track(0)).
position((72,78),cell,track(0)).
position((72,79),cell,track(0)).
position((7,27),cell,track(0)).
position((72,7),cell,track(0)).
position((7,28),cell,track(0)).
position((72,8),cell,track(0)).
position((7,29),cell,track(0)).
position((72,9),cell,track(0)).
position((7,2),cell,track(0)).
position((7,30),cell,track(0)).
position((73,0),cell,track(0)).
position((73,10),cell,track(0)).
position((73,11),cell,track(0)).
position((73,12),cell,track(0)).
position((73,13),cell,track(0)).
position((73,14),cell,track(0)).
position((73,15),cell,track(0)).
position((73,16),cell,track(0)).
position((73,17),cell,track(0)).
position((73,18),cell,track(0)).
position((73,19),cell,track(0)).
position((7,31),cell,track(0)).
position((73,1),cell,track(0)).
position((73,20),cell,track(0)).
position((73,21),cell,track(0)).
position((73,22),cell,track(0)).
position((73,23),cell,track(0)).
position((73,24),cell,track(0)).
position((73,25),cell,track(0)).
position((73,26),cell,track(0)).
position((73,27),cell,track(0)).
position((73,28),cell,track(0)).
position((73,29),cell,track(0)).
position((7,32),cell,track(0)).
position((73,2),cell,track(0)).
position((73,30),cell,track(0)).
position((73,31),cell,track(0)).
position((73,32),cell,track(0)).
position((73,33),cell,track(0)).
position((73,34),cell,track(0)).
position((73,35),cell,track(0)).
position((73,36),cell,track(0)).
position((73,37),cell,track(0)).
position((73,38),cell,track(0)).
position((73,39),cell,track(0)).
position((7,33),cell,track(0)).
position((73,3),cell,track(0)).
position((73,40),cell,track(0)).
position((73,41),cell,track(0)).
position((73,42),cell,track(0)).
position((73,43),cell,track(0)).
position((73,44),cell,track(0)).
position((73,45),cell,track(0)).
position((73,46),cell,track(0)).
position((73,47),cell,track(72)).
position((73,48),cell,track(4608)).
position((73,49),cell,track(72)).
position((7,34),cell,track(0)).
position((73,4),cell,track(0)).
position((73,50),cell,track(4608)).
position((73,51),cell,track(0)).
position((73,52),cell,track(0)).
position((73,53),cell,track(0)).
position((73,54),cell,track(0)).
position((73,55),cell,track(32800)).
position((73,56),cell,track(32800)).
position((73,57),cell,track(0)).
position((73,58),cell,track(0)).
position((73,59),cell,track(0)).
position((7,35),cell,track(0)).
position((73,5),cell,track(0)).
position((73,60),cell,track(0)).
position((73,61),cell,track(0)).
position((73,62),cell,track(0)).
position((73,63),cell,track(0)).
position((73,64),cell,track(0)).
position((73,65),cell,track(0)).
position((73,66),cell,track(0)).
position((73,67),cell,track(0)).
position((73,68),cell,track(0)).
position((73,69),cell,track(0)).
position((7,36),cell,track(0)).
position((73,6),cell,track(0)).
position((73,70),cell,track(0)).
position((73,71),cell,track(0)).
position((73,72),cell,track(0)).
position((73,73),cell,track(0)).
position((73,74),cell,track(0)).
position((73,75),cell,track(0)).
position((73,76),cell,track(0)).
position((73,77),cell,track(0)).
position((73,78),cell,track(0)).
position((73,79),cell,track(0)).
position((7,37),cell,track(0)).
position((73,7),cell,track(0)).
position((7,38),cell,track(0)).
position((73,8),cell,track(0)).
position((7,39),cell,track(0)).
position((73,9),cell,track(0)).
position((7,3),cell,track(0)).
position((7,40),cell,track(0)).
position((74,0),cell,track(0)).
position((74,10),cell,track(0)).
position((74,11),cell,track(0)).
position((74,12),cell,track(0)).
position((74,13),cell,track(0)).
position((74,14),cell,track(0)).
position((74,15),cell,track(0)).
position((74,16),cell,track(0)).
position((74,17),cell,track(0)).
position((74,18),cell,track(0)).
position((74,19),cell,track(0)).
position((7,41),cell,track(0)).
position((74,1),cell,track(0)).
position((74,20),cell,track(0)).
position((74,21),cell,track(0)).
position((74,22),cell,track(0)).
position((74,23),cell,track(0)).
position((74,24),cell,track(0)).
position((74,25),cell,track(0)).
position((74,26),cell,track(0)).
position((74,27),cell,track(0)).
position((74,28),cell,track(0)).
position((74,29),cell,track(0)).
position((7,42),cell,track(0)).
position((74,2),cell,track(0)).
position((74,30),cell,track(0)).
position((74,31),cell,track(0)).
position((74,32),cell,track(0)).
position((74,33),cell,track(0)).
position((74,34),cell,track(0)).
position((74,35),cell,track(0)).
position((74,36),cell,track(0)).
position((74,37),cell,track(0)).
position((74,38),cell,track(0)).
position((74,39),cell,track(0)).
position((7,43),cell,track(0)).
position((74,3),cell,track(0)).
position((74,40),cell,track(0)).
position((74,41),cell,track(0)).
position((74,42),cell,track(0)).
position((74,43),cell,track(0)).
position((74,44),cell,track(0)).
position((74,45),cell,track(0)).
position((74,46),cell,track(0)).
position((74,47),cell,track(0)).
position((74,48),cell,track(72)).
position((74,49),cell,track(1025)).
position((7,44),cell,track(0)).
position((74,4),cell,track(0)).
position((74,50),cell,track(1097)).
position((74,51),cell,track(1025)).
position((74,52),cell,track(1025)).
position((74,53),cell,track(1025)).
position((74,54),cell,track(1025)).
position((74,55),cell,track(3089)).
position((74,56),cell,track(2064)).
position((74,57),cell,track(0)).
position((74,58),cell,track(0)).
position((74,59),cell,track(0)).
position((7,45),cell,track(0)).
position((74,5),cell,track(0)).
position((74,60),cell,track(0)).
position((74,61),cell,track(0)).
position((74,62),cell,track(0)).
position((74,63),cell,track(0)).
position((74,64),cell,track(0)).
position((74,65),cell,track(0)).
position((74,66),cell,track(0)).
position((74,67),cell,track(0)).
position((74,68),cell,track(0)).
position((74,69),cell,track(0)).
position((7,46),cell,track(0)).
position((74,6),cell,track(0)).
position((74,70),cell,track(0)).
position((74,71),cell,track(0)).
position((74,72),cell,track(0)).
position((74,73),cell,track(0)).
position((74,74),cell,track(0)).
position((74,75),cell,track(0)).
position((74,76),cell,track(0)).
position((74,77),cell,track(0)).
position((74,78),cell,track(0)).
position((74,79),cell,track(0)).
position((7,47),cell,track(0)).
position((74,7),cell,track(0)).
position((7,48),cell,track(0)).
position((74,8),cell,track(0)).
position((7,49),cell,track(0)).
position((74,9),cell,track(0)).
position((7,4),cell,track(0)).
position((7,50),cell,track(0)).
position((75,0),cell,track(0)).
position((75,10),cell,track(0)).
position((75,11),cell,track(0)).
position((75,12),cell,track(0)).
position((75,13),cell,track(0)).
position((75,14),cell,track(0)).
position((75,15),cell,track(0)).
position((75,16),cell,track(0)).
position((75,17),cell,track(0)).
position((75,18),cell,track(0)).
position((75,19),cell,track(0)).
position((7,51),cell,track(0)).
position((75,1),cell,track(0)).
position((75,20),cell,track(0)).
position((75,21),cell,track(0)).
position((75,22),cell,track(0)).
position((75,23),cell,track(0)).
position((75,24),cell,track(0)).
position((75,25),cell,track(0)).
position((75,26),cell,track(0)).
position((75,27),cell,track(0)).
position((75,28),cell,track(0)).
position((75,29),cell,track(0)).
position((7,52),cell,track(0)).
position((75,2),cell,track(0)).
position((75,30),cell,track(0)).
position((75,31),cell,track(0)).
position((75,32),cell,track(0)).
position((75,33),cell,track(0)).
position((75,34),cell,track(0)).
position((75,35),cell,track(0)).
position((75,36),cell,track(0)).
position((75,37),cell,track(0)).
position((75,38),cell,track(0)).
position((75,39),cell,track(0)).
position((7,53),cell,track(0)).
position((75,3),cell,track(0)).
position((75,40),cell,track(0)).
position((75,41),cell,track(0)).
position((75,42),cell,track(0)).
position((75,43),cell,track(0)).
position((75,44),cell,track(0)).
position((75,45),cell,track(0)).
position((75,46),cell,track(0)).
position((75,47),cell,track(0)).
position((75,48),cell,track(0)).
position((75,49),cell,track(0)).
position((7,54),cell,track(0)).
position((75,4),cell,track(0)).
position((75,50),cell,track(0)).
position((75,51),cell,track(0)).
position((75,52),cell,track(0)).
position((75,53),cell,track(0)).
position((75,54),cell,track(0)).
position((75,55),cell,track(0)).
position((75,56),cell,track(0)).
position((75,57),cell,track(0)).
position((75,58),cell,track(0)).
position((75,59),cell,track(0)).
position((7,55),cell,track(0)).
position((75,5),cell,track(0)).
position((75,60),cell,track(0)).
position((75,61),cell,track(0)).
position((75,62),cell,track(0)).
position((75,63),cell,track(0)).
position((75,64),cell,track(0)).
position((75,65),cell,track(0)).
position((75,66),cell,track(0)).
position((75,67),cell,track(0)).
position((75,68),cell,track(0)).
position((75,69),cell,track(0)).
position((7,56),cell,track(0)).
position((75,6),cell,track(0)).
position((75,70),cell,track(0)).
position((75,71),cell,track(0)).
position((75,72),cell,track(0)).
position((75,73),cell,track(0)).
position((75,74),cell,track(0)).
position((75,75),cell,track(0)).
position((75,76),cell,track(0)).
position((75,77),cell,track(0)).
position((75,78),cell,track(0)).
position((75,79),cell,track(0)).
position((7,57),cell,track(0)).
position((75,7),cell,track(0)).
position((7,58),cell,track(0)).
position((75,8),cell,track(0)).
position((7,59),cell,track(0)).
position((75,9),cell,track(0)).
position((7,5),cell,track(0)).
position((7,60),cell,track(0)).
position((76,0),cell,track(0)).
position((76,10),cell,track(0)).
position((76,11),cell,track(0)).
position((76,12),cell,track(0)).
position((76,13),cell,track(0)).
position((76,14),cell,track(0)).
position((76,15),cell,track(0)).
position((76,16),cell,track(0)).
position((76,17),cell,track(0)).
position((76,18),cell,track(0)).
position((76,19),cell,track(0)).
position((7,61),cell,track(0)).
position((76,1),cell,track(0)).
position((76,20),cell,track(0)).
position((76,21),cell,track(0)).
position((76,22),cell,track(0)).
position((76,23),cell,track(0)).
position((76,24),cell,track(0)).
position((76,25),cell,track(0)).
position((76,26),cell,track(0)).
position((76,27),cell,track(0)).
position((76,28),cell,track(0)).
position((76,29),cell,track(0)).
position((7,62),cell,track(0)).
position((76,2),cell,track(0)).
position((76,30),cell,track(0)).
position((76,31),cell,track(0)).
position((76,32),cell,track(0)).
position((76,33),cell,track(0)).
position((76,34),cell,track(0)).
position((76,35),cell,track(0)).
position((76,36),cell,track(0)).
position((76,37),cell,track(0)).
position((76,38),cell,track(0)).
position((76,39),cell,track(0)).
position((7,63),cell,track(0)).
position((76,3),cell,track(0)).
position((76,40),cell,track(0)).
position((76,41),cell,track(0)).
position((76,42),cell,track(0)).
position((76,43),cell,track(0)).
position((76,44),cell,track(0)).
position((76,45),cell,track(0)).
position((76,46),cell,track(0)).
position((76,47),cell,track(0)).
position((76,48),cell,track(0)).
position((76,49),cell,track(0)).
position((7,64),cell,track(0)).
position((76,4),cell,track(0)).
position((76,50),cell,track(0)).
position((76,51),cell,track(0)).
position((76,52),cell,track(0)).
position((76,53),cell,track(0)).
position((76,54),cell,track(0)).
position((76,55),cell,track(0)).
position((76,56),cell,track(0)).
position((76,57),cell,track(0)).
position((76,58),cell,track(0)).
position((76,59),cell,track(0)).
position((7,65),cell,track(0)).
position((76,5),cell,track(0)).
position((76,60),cell,track(0)).
position((76,61),cell,track(0)).
position((76,62),cell,track(0)).
position((76,63),cell,track(0)).
position((76,64),cell,track(0)).
position((76,65),cell,track(0)).
position((76,66),cell,track(0)).
position((76,67),cell,track(0)).
position((76,68),cell,track(0)).
position((76,69),cell,track(0)).
position((7,66),cell,track(0)).
position((76,6),cell,track(0)).
position((76,70),cell,track(0)).
position((76,71),cell,track(0)).
position((76,72),cell,track(0)).
position((76,73),cell,track(0)).
position((76,74),cell,track(0)).
position((76,75),cell,track(0)).
position((76,76),cell,track(0)).
position((76,77),cell,track(0)).
position((76,78),cell,track(0)).
position((76,79),cell,track(0)).
position((7,67),cell,track(0)).
position((76,7),cell,track(0)).
position((7,68),cell,track(0)).
position((76,8),cell,track(0)).
position((7,69),cell,track(0)).
position((76,9),cell,track(0)).
position((7,6),cell,track(0)).
position((7,70),cell,track(0)).
position((77,0),cell,track(0)).
position((77,10),cell,track(0)).
position((77,11),cell,track(0)).
position((77,12),cell,track(0)).
position((77,13),cell,track(0)).
position((77,14),cell,track(0)).
position((77,15),cell,track(0)).
position((77,16),cell,track(0)).
position((77,17),cell,track(0)).
position((77,18),cell,track(0)).
position((77,19),cell,track(0)).
position((7,71),cell,track(0)).
position((77,1),cell,track(0)).
position((77,20),cell,track(0)).
position((77,21),cell,track(0)).
position((77,22),cell,track(0)).
position((77,23),cell,track(0)).
position((77,24),cell,track(0)).
position((77,25),cell,track(0)).
position((77,26),cell,track(0)).
position((77,27),cell,track(0)).
position((77,28),cell,track(0)).
position((77,29),cell,track(0)).
position((7,72),cell,track(0)).
position((77,2),cell,track(0)).
position((77,30),cell,track(0)).
position((77,31),cell,track(0)).
position((77,32),cell,track(0)).
position((77,33),cell,track(0)).
position((77,34),cell,track(0)).
position((77,35),cell,track(0)).
position((77,36),cell,track(0)).
position((77,37),cell,track(0)).
position((77,38),cell,track(0)).
position((77,39),cell,track(0)).
position((7,73),cell,track(0)).
position((77,3),cell,track(0)).
position((77,40),cell,track(0)).
position((77,41),cell,track(0)).
position((77,42),cell,track(0)).
position((77,43),cell,track(0)).
position((77,44),cell,track(0)).
position((77,45),cell,track(0)).
position((77,46),cell,track(0)).
position((77,47),cell,track(0)).
position((77,48),cell,track(0)).
position((77,49),cell,track(0)).
position((7,74),cell,track(0)).
position((77,4),cell,track(0)).
position((77,50),cell,track(0)).
position((77,51),cell,track(0)).
position((77,52),cell,track(0)).
position((77,53),cell,track(0)).
position((77,54),cell,track(0)).
position((77,55),cell,track(0)).
position((77,56),cell,track(0)).
position((77,57),cell,track(0)).
position((77,58),cell,track(0)).
position((77,59),cell,track(0)).
position((7,75),cell,track(0)).
position((77,5),cell,track(0)).
position((77,60),cell,track(0)).
position((77,61),cell,track(0)).
position((77,62),cell,track(0)).
position((77,63),cell,track(0)).
position((77,64),cell,track(0)).
position((77,65),cell,track(0)).
position((77,66),cell,track(0)).
position((77,67),cell,track(0)).
position((77,68),cell,track(0)).
position((77,69),cell,track(0)).
position((7,76),cell,track(0)).
position((77,6),cell,track(0)).
position((77,70),cell,track(0)).
position((77,71),cell,track(0)).
position((77,72),cell,track(0)).
position((77,73),cell,track(0)).
position((77,74),cell,track(0)).
position((77,75),cell,track(0)).
position((77,76),cell,track(0)).
position((77,77),cell,track(0)).
position((77,78),cell,track(0)).
position((77,79),cell,track(0)).
position((7,77),cell,track(0)).
position((77,7),cell,track(0)).
position((7,78),cell,track(0)).
position((77,8),cell,track(0)).
position((7,79),cell,track(0)).
position((77,9),cell,track(0)).
position((7,7),cell,track(0)).
position((78,0),cell,track(0)).
position((78,10),cell,track(0)).
position((78,11),cell,track(0)).
position((78,12),cell,track(0)).
position((78,13),cell,track(0)).
position((78,14),cell,track(0)).
position((78,15),cell,track(0)).
position((78,16),cell,track(0)).
position((78,17),cell,track(0)).
position((78,18),cell,track(0)).
position((78,19),cell,track(0)).
position((78,1),cell,track(0)).
position((78,20),cell,track(0)).
position((78,21),cell,track(0)).
position((78,22),cell,track(0)).
position((78,23),cell,track(0)).
position((78,24),cell,track(0)).
position((78,25),cell,track(0)).
position((78,26),cell,track(0)).
position((78,27),cell,track(0)).
position((78,28),cell,track(0)).
position((78,29),cell,track(0)).
position((78,2),cell,track(0)).
position((78,30),cell,track(0)).
position((78,31),cell,track(0)).
position((78,32),cell,track(0)).
position((78,33),cell,track(0)).
position((78,34),cell,track(0)).
position((78,35),cell,track(0)).
position((78,36),cell,track(0)).
position((78,37),cell,track(0)).
position((78,38),cell,track(0)).
position((78,39),cell,track(0)).
position((78,3),cell,track(0)).
position((78,40),cell,track(0)).
position((78,41),cell,track(0)).
position((78,42),cell,track(0)).
position((78,43),cell,track(0)).
position((78,44),cell,track(0)).
position((78,45),cell,track(0)).
position((78,46),cell,track(0)).
position((78,47),cell,track(0)).
position((78,48),cell,track(0)).
position((78,49),cell,track(0)).
position((78,4),cell,track(0)).
position((78,50),cell,track(0)).
position((78,51),cell,track(0)).
position((78,52),cell,track(0)).
position((78,53),cell,track(0)).
position((78,54),cell,track(0)).
position((78,55),cell,track(0)).
position((78,56),cell,track(0)).
position((78,57),cell,track(0)).
position((78,58),cell,track(0)).
position((78,59),cell,track(0)).
position((78,5),cell,track(0)).
position((78,60),cell,track(0)).
position((78,61),cell,track(0)).
position((78,62),cell,track(0)).
position((78,63),cell,track(0)).
position((78,64),cell,track(0)).
position((78,65),cell,track(0)).
position((78,66),cell,track(0)).
position((78,67),cell,track(0)).
position((78,68),cell,track(0)).
position((78,69),cell,track(0)).
position((78,6),cell,track(0)).
position((78,70),cell,track(0)).
position((78,71),cell,track(0)).
position((78,72),cell,track(0)).
position((78,73),cell,track(0)).
position((78,74),cell,track(0)).
position((78,75),cell,track(0)).
position((78,76),cell,track(0)).
position((78,77),cell,track(0)).
position((78,78),cell,track(0)).
position((78,79),cell,track(0)).
position((78,7),cell,track(0)).
position((78,8),cell,track(0)).
position((78,9),cell,track(0)).
position((7,8),cell,track(0)).
position((79,0),cell,track(0)).
position((79,10),cell,track(0)).
position((79,11),cell,track(0)).
position((79,12),cell,track(0)).
position((79,13),cell,track(0)).
position((79,14),cell,track(0)).
position((79,15),cell,track(0)).
position((79,16),cell,track(0)).
position((79,17),cell,track(0)).
position((79,18),cell,track(0)).
position((79,19),cell,track(0)).
position((79,1),cell,track(0)).
position((79,20),cell,track(0)).
position((79,21),cell,track(0)).
position((79,22),cell,track(0)).
position((79,23),cell,track(0)).
position((79,24),cell,track(0)).
position((79,25),cell,track(0)).
position((79,26),cell,track(0)).
position((79,27),cell,track(0)).
position((79,28),cell,track(0)).
position((79,29),cell,track(0)).
position((79,2),cell,track(0)).
position((79,30),cell,track(0)).
position((79,31),cell,track(0)).
position((79,32),cell,track(0)).
position((79,33),cell,track(0)).
position((79,34),cell,track(0)).
position((79,35),cell,track(0)).
position((79,36),cell,track(0)).
position((79,37),cell,track(0)).
position((79,38),cell,track(0)).
position((79,39),cell,track(0)).
position((79,3),cell,track(0)).
position((79,40),cell,track(0)).
position((79,41),cell,track(0)).
position((79,42),cell,track(0)).
position((79,43),cell,track(0)).
position((79,44),cell,track(0)).
position((79,45),cell,track(0)).
position((79,46),cell,track(0)).
position((79,47),cell,track(0)).
position((79,48),cell,track(0)).
position((79,49),cell,track(0)).
position((79,4),cell,track(0)).
position((79,50),cell,track(0)).
position((79,51),cell,track(0)).
position((79,52),cell,track(0)).
position((79,53),cell,track(0)).
position((79,54),cell,track(0)).
position((79,55),cell,track(0)).
position((79,56),cell,track(0)).
position((79,57),cell,track(0)).
position((79,58),cell,track(0)).
position((79,59),cell,track(0)).
position((79,5),cell,track(0)).
position((79,60),cell,track(0)).
position((79,61),cell,track(0)).
position((79,62),cell,track(0)).
position((79,63),cell,track(0)).
position((79,64),cell,track(0)).
position((79,65),cell,track(0)).
position((79,66),cell,track(0)).
position((79,67),cell,track(0)).
position((79,68),cell,track(0)).
position((79,69),cell,track(0)).
position((79,6),cell,track(0)).
position((79,70),cell,track(0)).
position((79,71),cell,track(0)).
position((79,72),cell,track(0)).
position((79,73),cell,track(0)).
position((79,74),cell,track(0)).
position((79,75),cell,track(0)).
position((79,76),cell,track(0)).
position((79,77),cell,track(0)).
position((79,78),cell,track(0)).
position((79,79),cell,track(0)).
position((79,7),cell,track(0)).
position((79,8),cell,track(0)).
position((79,9),cell,track(0)).
position((7,9),cell,track(0)).
position((8,0),cell,track(0)).
position((8,10),cell,track(0)).
position((8,11),cell,track(0)).
position((8,12),cell,track(0)).
position((8,13),cell,track(0)).
position((8,14),cell,track(0)).
position((8,15),cell,track(0)).
position((8,16),cell,track(0)).
position((8,17),cell,track(0)).
position((8,18),cell,track(0)).
position((8,19),cell,track(0)).
position((8,1),cell,track(0)).
position((8,20),cell,track(0)).
position((8,21),cell,track(0)).
position((8,22),cell,track(0)).
position((8,23),cell,track(0)).
position((8,24),cell,track(0)).
position((8,25),cell,track(0)).
position((8,26),cell,track(0)).
position((8,27),cell,track(0)).
position((8,28),cell,track(0)).
position((8,29),cell,track(0)).
position((8,2),cell,track(0)).
position((8,30),cell,track(0)).
position((8,31),cell,track(0)).
position((8,32),cell,track(0)).
position((8,33),cell,track(0)).
position((8,34),cell,track(0)).
position((8,35),cell,track(0)).
position((8,36),cell,track(0)).
position((8,37),cell,track(0)).
position((8,38),cell,track(0)).
position((8,39),cell,track(0)).
position((8,3),cell,track(0)).
position((8,40),cell,track(0)).
position((8,41),cell,track(0)).
position((8,42),cell,track(0)).
position((8,43),cell,track(0)).
position((8,44),cell,track(0)).
position((8,45),cell,track(0)).
position((8,46),cell,track(0)).
position((8,47),cell,track(0)).
position((8,48),cell,track(0)).
position((8,49),cell,track(0)).
position((8,4),cell,track(0)).
position((8,50),cell,track(0)).
position((8,51),cell,track(0)).
position((8,52),cell,track(0)).
position((8,53),cell,track(0)).
position((8,54),cell,track(0)).
position((8,55),cell,track(0)).
position((8,56),cell,track(0)).
position((8,57),cell,track(0)).
position((8,58),cell,track(0)).
position((8,59),cell,track(0)).
position((8,5),cell,track(0)).
position((8,60),cell,track(0)).
position((8,61),cell,track(0)).
position((8,62),cell,track(0)).
position((8,63),cell,track(0)).
position((8,64),cell,track(0)).
position((8,65),cell,track(0)).
position((8,66),cell,track(0)).
position((8,67),cell,track(0)).
position((8,68),cell,track(0)).
position((8,69),cell,track(0)).
position((8,6),cell,track(0)).
position((8,70),cell,track(0)).
position((8,71),cell,track(0)).
position((8,72),cell,track(0)).
position((8,73),cell,track(0)).
position((8,74),cell,track(0)).
position((8,75),cell,track(0)).
position((8,76),cell,track(0)).
position((8,77),cell,track(0)).
position((8,78),cell,track(0)).
position((8,79),cell,track(0)).
position((8,7),cell,track(0)).
position((8,8),cell,track(0)).
position((8,9),cell,track(0)).
position((9,0),cell,track(0)).
position((9,10),cell,track(0)).
position((9,11),cell,track(0)).
position((9,12),cell,track(0)).
position((9,13),cell,track(0)).
position((9,14),cell,track(0)).
position((9,15),cell,track(0)).
position((9,16),cell,track(0)).
position((9,17),cell,track(0)).
position((9,18),cell,track(0)).
position((9,19),cell,track(0)).
position((9,1),cell,track(0)).
position((9,20),cell,track(0)).
position((9,21),cell,track(0)).
position((9,22),cell,track(0)).
position((9,23),cell,track(0)).
position((9,24),cell,track(0)).
position((9,25),cell,track(0)).
position((9,26),cell,track(0)).
position((9,27),cell,track(0)).
position((9,28),cell,track(0)).
position((9,29),cell,track(0)).
position((9,2),cell,track(0)).
position((9,30),cell,track(0)).
position((9,31),cell,track(0)).
position((9,32),cell,track(0)).
position((9,33),cell,track(0)).
position((9,34),cell,track(0)).
position((9,35),cell,track(0)).
position((9,36),cell,track(0)).
position((9,37),cell,track(0)).
position((9,38),cell,track(0)).
position((9,39),cell,track(0)).
position((9,3),cell,track(0)).
position((9,40),cell,track(0)).
position((9,41),cell,track(0)).
position((9,42),cell,track(0)).
position((9,43),cell,track(0)).
position((9,44),cell,track(0)).
position((9,45),cell,track(0)).
position((9,46),cell,track(0)).
position((9,47),cell,track(0)).
position((9,48),cell,track(0)).
position((9,49),cell,track(0)).
position((9,4),cell,track(0)).
position((9,50),cell,track(0)).
position((9,51),cell,track(0)).
position((9,52),cell,track(0)).
position((9,53),cell,track(0)).
position((9,54),cell,track(0)).
position((9,55),cell,track(0)).
position((9,56),cell,track(0)).
position((9,57),cell,track(0)).
position((9,58),cell,track(0)).
position((9,59),cell,track(0)).
position((9,5),cell,track(0)).
position((9,60),cell,track(0)).
position((9,61),cell,track(0)).
position((9,62),cell,track(0)).
position((9,63),cell,track(0)).
position((9,64),cell,track(0)).
position((9,65),cell,track(0)).
position((9,66),cell,track(0)).
position((9,67),cell,track(0)).
position((9,68),cell,track(0)).
position((9,69),cell,track(0)).
position((9,6),cell,track(0)).
position((9,70),cell,track(0)).
position((9,71),cell,track(0)).
position((9,72),cell,track(0)).
position((9,73),cell,track(0)).
position((9,74),cell,track(0)).
position((9,75),cell,track(0)).
position((9,76),cell,track(0)).
position((9,77),cell,track(0)).
position((9,78),cell,track(0)).
position((9,79),cell,track(0)).
position((9,7),cell,track(0)).
position((9,8),cell,track(0)).
position((9,9),cell,track(0)).


node((R,C)):-Rmax=#max{RR:position((RR,_),_,_)},Cmax=#max{CC:position((_,CC),_,_)},R=0..Rmax,C=0..Cmax.
