%%%%%%%%%%%%%%%%%%%%%%%%%%%%%%%%%%%%%%%%%%%%%%%%%%%%%%%%%%%%%%%%%%%%%%%%%%%%%%
% Complete generic Flatland instance
%%%%%%%%%%%%%%%%%%%%%%%%%%%%%%%%%%%%%%%%%%%%%%%%%%%%%%%%%%%%%%%%%%%%%%%%%%%%%%

% Trains
object(train(0),train).
% object(train(1),train).

% Track types
object(track(0),track).
object(track(72),track).
object(track(1025),track).
object(track(1097),track).
object(track(2064),track).
object(track(3089),track).
object(track(4608),track).
object(track(5633),track).
object(track(16386),track).
object(track(17411),track).
object(track(32800),track).
object(track(33825),track).
object(track(37408),track).
object(track(38505),track).
object(track(49186),track).
object(track(52275),track).

% Train properties
property(train(0),(position,start),(18,7)).
property(train(0),dep,3).
property(train(0),direction,w).
property(train(0),(position,end),(16,24)).
property(train(0),arr,59).
property(train(0),speed,1).

% property(train(1),(position,start),(15,24)).
% property(train(1),dep,7).
% property(train(1),direction,w).
% property(train(1),(position,end),(19,7)).
% property(train(1),arr,42).
% property(train(1),speed,1).


% Complete 40x40 track placement
at((0,0),track(0)).
at((0,1),track(0)).
at((0,2),track(0)).
at((0,3),track(0)).
at((0,4),track(0)).
at((0,5),track(0)).
at((0,6),track(0)).
at((0,7),track(0)).
at((0,8),track(0)).
at((0,9),track(0)).
at((0,10),track(0)).
at((0,11),track(0)).
at((0,12),track(0)).
at((0,13),track(0)).
at((0,14),track(0)).
at((0,15),track(0)).
at((0,16),track(0)).
at((0,17),track(0)).
at((0,18),track(0)).
at((0,19),track(0)).
at((0,20),track(0)).
at((0,21),track(0)).
at((0,22),track(0)).
at((0,23),track(0)).
at((0,24),track(0)).
at((0,25),track(0)).
at((0,26),track(0)).
at((0,27),track(0)).
at((0,28),track(0)).
at((0,29),track(0)).
at((0,30),track(0)).
at((0,31),track(0)).
at((0,32),track(0)).
at((0,33),track(0)).
at((0,34),track(0)).
at((0,35),track(0)).
at((0,36),track(0)).
at((0,37),track(0)).
at((0,38),track(0)).
at((0,39),track(0)).
at((1,0),track(0)).
at((1,1),track(0)).
at((1,2),track(0)).
at((1,3),track(0)).
at((1,4),track(0)).
at((1,5),track(0)).
at((1,6),track(0)).
at((1,7),track(0)).
at((1,8),track(0)).
at((1,9),track(0)).
at((1,10),track(0)).
at((1,11),track(0)).
at((1,12),track(0)).
at((1,13),track(0)).
at((1,14),track(0)).
at((1,15),track(0)).
at((1,16),track(0)).
at((1,17),track(0)).
at((1,18),track(0)).
at((1,19),track(0)).
at((1,20),track(0)).
at((1,21),track(0)).
at((1,22),track(0)).
at((1,23),track(0)).
at((1,24),track(0)).
at((1,25),track(0)).
at((1,26),track(0)).
at((1,27),track(0)).
at((1,28),track(0)).
at((1,29),track(0)).
at((1,30),track(0)).
at((1,31),track(0)).
at((1,32),track(0)).
at((1,33),track(0)).
at((1,34),track(0)).
at((1,35),track(0)).
at((1,36),track(0)).
at((1,37),track(0)).
at((1,38),track(0)).
at((1,39),track(0)).
at((2,0),track(0)).
at((2,1),track(0)).
at((2,2),track(0)).
at((2,3),track(0)).
at((2,4),track(0)).
at((2,5),track(0)).
at((2,6),track(0)).
at((2,7),track(0)).
at((2,8),track(0)).
at((2,9),track(0)).
at((2,10),track(0)).
at((2,11),track(0)).
at((2,12),track(0)).
at((2,13),track(0)).
at((2,14),track(0)).
at((2,15),track(0)).
at((2,16),track(0)).
at((2,17),track(0)).
at((2,18),track(0)).
at((2,19),track(0)).
at((2,20),track(0)).
at((2,21),track(0)).
at((2,22),track(0)).
at((2,23),track(0)).
at((2,24),track(0)).
at((2,25),track(0)).
at((2,26),track(0)).
at((2,27),track(0)).
at((2,28),track(0)).
at((2,29),track(0)).
at((2,30),track(0)).
at((2,31),track(0)).
at((2,32),track(0)).
at((2,33),track(0)).
at((2,34),track(0)).
at((2,35),track(0)).
at((2,36),track(0)).
at((2,37),track(0)).
at((2,38),track(0)).
at((2,39),track(0)).
at((3,0),track(0)).
at((3,1),track(0)).
at((3,2),track(0)).
at((3,3),track(0)).
at((3,4),track(0)).
at((3,5),track(0)).
at((3,6),track(0)).
at((3,7),track(0)).
at((3,8),track(0)).
at((3,9),track(0)).
at((3,10),track(0)).
at((3,11),track(0)).
at((3,12),track(0)).
at((3,13),track(0)).
at((3,14),track(0)).
at((3,15),track(0)).
at((3,16),track(0)).
at((3,17),track(0)).
at((3,18),track(0)).
at((3,19),track(0)).
at((3,20),track(0)).
at((3,21),track(0)).
at((3,22),track(0)).
at((3,23),track(0)).
at((3,24),track(0)).
at((3,25),track(0)).
at((3,26),track(0)).
at((3,27),track(0)).
at((3,28),track(0)).
at((3,29),track(0)).
at((3,30),track(0)).
at((3,31),track(0)).
at((3,32),track(0)).
at((3,33),track(0)).
at((3,34),track(0)).
at((3,35),track(0)).
at((3,36),track(0)).
at((3,37),track(0)).
at((3,38),track(0)).
at((3,39),track(0)).
at((4,0),track(0)).
at((4,1),track(0)).
at((4,2),track(0)).
at((4,3),track(0)).
at((4,4),track(0)).
at((4,5),track(0)).
at((4,6),track(0)).
at((4,7),track(0)).
at((4,8),track(0)).
at((4,9),track(0)).
at((4,10),track(0)).
at((4,11),track(0)).
at((4,12),track(0)).
at((4,13),track(0)).
at((4,14),track(0)).
at((4,15),track(0)).
at((4,16),track(0)).
at((4,17),track(0)).
at((4,18),track(0)).
at((4,19),track(0)).
at((4,20),track(0)).
at((4,21),track(0)).
at((4,22),track(0)).
at((4,23),track(0)).
at((4,24),track(0)).
at((4,25),track(0)).
at((4,26),track(0)).
at((4,27),track(0)).
at((4,28),track(0)).
at((4,29),track(0)).
at((4,30),track(0)).
at((4,31),track(0)).
at((4,32),track(0)).
at((4,33),track(0)).
at((4,34),track(0)).
at((4,35),track(0)).
at((4,36),track(0)).
at((4,37),track(0)).
at((4,38),track(0)).
at((4,39),track(0)).
at((5,0),track(0)).
at((5,1),track(0)).
at((5,2),track(0)).
at((5,3),track(0)).
at((5,4),track(0)).
at((5,5),track(0)).
at((5,6),track(0)).
at((5,7),track(0)).
at((5,8),track(0)).
at((5,9),track(0)).
at((5,10),track(0)).
at((5,11),track(0)).
at((5,12),track(0)).
at((5,13),track(0)).
at((5,14),track(0)).
at((5,15),track(0)).
at((5,16),track(0)).
at((5,17),track(0)).
at((5,18),track(0)).
at((5,19),track(0)).
at((5,20),track(0)).
at((5,21),track(0)).
at((5,22),track(0)).
at((5,23),track(0)).
at((5,24),track(0)).
at((5,25),track(0)).
at((5,26),track(0)).
at((5,27),track(0)).
at((5,28),track(0)).
at((5,29),track(0)).
at((5,30),track(0)).
at((5,31),track(0)).
at((5,32),track(0)).
at((5,33),track(0)).
at((5,34),track(0)).
at((5,35),track(0)).
at((5,36),track(0)).
at((5,37),track(0)).
at((5,38),track(0)).
at((5,39),track(0)).
at((6,0),track(0)).
at((6,1),track(0)).
at((6,2),track(0)).
at((6,3),track(0)).
at((6,4),track(0)).
at((6,5),track(0)).
at((6,6),track(0)).
at((6,7),track(0)).
at((6,8),track(0)).
at((6,9),track(0)).
at((6,10),track(0)).
at((6,11),track(0)).
at((6,12),track(0)).
at((6,13),track(0)).
at((6,14),track(0)).
at((6,15),track(0)).
at((6,16),track(0)).
at((6,17),track(0)).
at((6,18),track(0)).
at((6,19),track(0)).
at((6,20),track(0)).
at((6,21),track(0)).
at((6,22),track(0)).
at((6,23),track(0)).
at((6,24),track(0)).
at((6,25),track(0)).
at((6,26),track(0)).
at((6,27),track(0)).
at((6,28),track(0)).
at((6,29),track(0)).
at((6,30),track(0)).
at((6,31),track(0)).
at((6,32),track(0)).
at((6,33),track(0)).
at((6,34),track(0)).
at((6,35),track(0)).
at((6,36),track(0)).
at((6,37),track(0)).
at((6,38),track(0)).
at((6,39),track(0)).
at((7,0),track(0)).
at((7,1),track(0)).
at((7,2),track(0)).
at((7,3),track(0)).
at((7,4),track(0)).
at((7,5),track(0)).
at((7,6),track(0)).
at((7,7),track(0)).
at((7,8),track(0)).
at((7,9),track(0)).
at((7,10),track(0)).
at((7,11),track(0)).
at((7,12),track(0)).
at((7,13),track(0)).
at((7,14),track(0)).
at((7,15),track(0)).
at((7,16),track(0)).
at((7,17),track(0)).
at((7,18),track(0)).
at((7,19),track(0)).
at((7,20),track(0)).
at((7,21),track(0)).
at((7,22),track(0)).
at((7,23),track(0)).
at((7,24),track(0)).
at((7,25),track(0)).
at((7,26),track(0)).
at((7,27),track(0)).
at((7,28),track(0)).
at((7,29),track(0)).
at((7,30),track(0)).
at((7,31),track(0)).
at((7,32),track(0)).
at((7,33),track(0)).
at((7,34),track(0)).
at((7,35),track(0)).
at((7,36),track(0)).
at((7,37),track(0)).
at((7,38),track(0)).
at((7,39),track(0)).
at((8,0),track(0)).
at((8,1),track(0)).
at((8,2),track(0)).
at((8,3),track(0)).
at((8,4),track(0)).
at((8,5),track(0)).
at((8,6),track(0)).
at((8,7),track(0)).
at((8,8),track(0)).
at((8,9),track(0)).
at((8,10),track(0)).
at((8,11),track(0)).
at((8,12),track(0)).
at((8,13),track(0)).
at((8,14),track(0)).
at((8,15),track(0)).
at((8,16),track(0)).
at((8,17),track(0)).
at((8,18),track(0)).
at((8,19),track(0)).
at((8,20),track(0)).
at((8,21),track(0)).
at((8,22),track(0)).
at((8,23),track(0)).
at((8,24),track(0)).
at((8,25),track(0)).
at((8,26),track(0)).
at((8,27),track(0)).
at((8,28),track(0)).
at((8,29),track(0)).
at((8,30),track(0)).
at((8,31),track(0)).
at((8,32),track(0)).
at((8,33),track(0)).
at((8,34),track(0)).
at((8,35),track(0)).
at((8,36),track(0)).
at((8,37),track(0)).
at((8,38),track(0)).
at((8,39),track(0)).
at((9,0),track(0)).
at((9,1),track(0)).
at((9,2),track(0)).
at((9,3),track(0)).
at((9,4),track(0)).
at((9,5),track(0)).
at((9,6),track(0)).
at((9,7),track(0)).
at((9,8),track(0)).
at((9,9),track(0)).
at((9,10),track(0)).
at((9,11),track(0)).
at((9,12),track(0)).
at((9,13),track(0)).
at((9,14),track(0)).
at((9,15),track(0)).
at((9,16),track(0)).
at((9,17),track(0)).
at((9,18),track(0)).
at((9,19),track(0)).
at((9,20),track(0)).
at((9,21),track(0)).
at((9,22),track(0)).
at((9,23),track(0)).
at((9,24),track(0)).
at((9,25),track(0)).
at((9,26),track(0)).
at((9,27),track(0)).
at((9,28),track(0)).
at((9,29),track(0)).
at((9,30),track(0)).
at((9,31),track(0)).
at((9,32),track(0)).
at((9,33),track(0)).
at((9,34),track(0)).
at((9,35),track(0)).
at((9,36),track(0)).
at((9,37),track(0)).
at((9,38),track(0)).
at((9,39),track(0)).
at((10,0),track(0)).
at((10,1),track(0)).
at((10,2),track(0)).
at((10,3),track(0)).
at((10,4),track(0)).
at((10,5),track(0)).
at((10,6),track(0)).
at((10,7),track(0)).
at((10,8),track(0)).
at((10,9),track(0)).
at((10,10),track(0)).
at((10,11),track(0)).
at((10,12),track(0)).
at((10,13),track(0)).
at((10,14),track(0)).
at((10,15),track(0)).
at((10,16),track(0)).
at((10,17),track(0)).
at((10,18),track(0)).
at((10,19),track(0)).
at((10,20),track(0)).
at((10,21),track(0)).
at((10,22),track(0)).
at((10,23),track(0)).
at((10,24),track(0)).
at((10,25),track(0)).
at((10,26),track(0)).
at((10,27),track(0)).
at((10,28),track(0)).
at((10,29),track(0)).
at((10,30),track(0)).
at((10,31),track(0)).
at((10,32),track(0)).
at((10,33),track(0)).
at((10,34),track(0)).
at((10,35),track(0)).
at((10,36),track(0)).
at((10,37),track(0)).
at((10,38),track(0)).
at((10,39),track(0)).
at((11,0),track(0)).
at((11,1),track(0)).
at((11,2),track(0)).
at((11,3),track(0)).
at((11,4),track(0)).
at((11,5),track(0)).
at((11,6),track(0)).
at((11,7),track(0)).
at((11,8),track(0)).
at((11,9),track(0)).
at((11,10),track(0)).
at((11,11),track(0)).
at((11,12),track(0)).
at((11,13),track(0)).
at((11,14),track(0)).
at((11,15),track(0)).
at((11,16),track(0)).
at((11,17),track(0)).
at((11,18),track(0)).
at((11,19),track(0)).
at((11,20),track(0)).
at((11,21),track(0)).
at((11,22),track(0)).
at((11,23),track(0)).
at((11,24),track(0)).
at((11,25),track(0)).
at((11,26),track(0)).
at((11,27),track(0)).
at((11,28),track(0)).
at((11,29),track(0)).
at((11,30),track(0)).
at((11,31),track(0)).
at((11,32),track(0)).
at((11,33),track(0)).
at((11,34),track(0)).
at((11,35),track(0)).
at((11,36),track(0)).
at((11,37),track(0)).
at((11,38),track(0)).
at((11,39),track(0)).
at((12,0),track(0)).
at((12,1),track(0)).
at((12,2),track(0)).
at((12,3),track(0)).
at((12,4),track(0)).
at((12,5),track(0)).
at((12,6),track(0)).
at((12,7),track(0)).
at((12,8),track(0)).
at((12,9),track(0)).
at((12,10),track(0)).
at((12,11),track(0)).
at((12,12),track(0)).
at((12,13),track(0)).
at((12,14),track(0)).
at((12,15),track(0)).
at((12,16),track(0)).
at((12,17),track(0)).
at((12,18),track(0)).
at((12,19),track(0)).
at((12,20),track(0)).
at((12,21),track(0)).
at((12,22),track(0)).
at((12,23),track(0)).
at((12,24),track(0)).
at((12,25),track(0)).
at((12,26),track(0)).
at((12,27),track(0)).
at((12,28),track(0)).
at((12,29),track(0)).
at((12,30),track(0)).
at((12,31),track(0)).
at((12,32),track(0)).
at((12,33),track(0)).
at((12,34),track(0)).
at((12,35),track(0)).
at((12,36),track(0)).
at((12,37),track(0)).
at((12,38),track(0)).
at((12,39),track(0)).
at((13,0),track(0)).
at((13,1),track(0)).
at((13,2),track(16386)).
at((13,3),track(1025)).
at((13,4),track(1025)).
at((13,5),track(1025)).
at((13,6),track(1025)).
at((13,7),track(1025)).
at((13,8),track(1025)).
at((13,9),track(1025)).
at((13,10),track(1025)).
at((13,11),track(1025)).
at((13,12),track(1025)).
at((13,13),track(1025)).
at((13,14),track(1025)).
at((13,15),track(1025)).
at((13,16),track(1025)).
at((13,17),track(1025)).
at((13,18),track(1025)).
at((13,19),track(4608)).
at((13,20),track(0)).
at((13,21),track(0)).
at((13,22),track(0)).
at((13,23),track(0)).
at((13,24),track(0)).
at((13,25),track(0)).
at((13,26),track(0)).
at((13,27),track(0)).
at((13,28),track(0)).
at((13,29),track(0)).
at((13,30),track(0)).
at((13,31),track(0)).
at((13,32),track(0)).
at((13,33),track(0)).
at((13,34),track(0)).
at((13,35),track(0)).
at((13,36),track(0)).
at((13,37),track(0)).
at((13,38),track(0)).
at((13,39),track(0)).
at((14,0),track(0)).
at((14,1),track(0)).
at((14,2),track(32800)).
at((14,3),track(0)).
at((14,4),track(0)).
at((14,5),track(0)).
at((14,6),track(0)).
at((14,7),track(0)).
at((14,8),track(0)).
at((14,9),track(0)).
at((14,10),track(0)).
at((14,11),track(0)).
at((14,12),track(0)).
at((14,13),track(0)).
at((14,14),track(0)).
at((14,15),track(0)).
at((14,16),track(0)).
at((14,17),track(0)).
at((14,18),track(0)).
at((14,19),track(32800)).
at((14,20),track(0)).
at((14,21),track(0)).
at((14,22),track(0)).
at((14,23),track(0)).
at((14,24),track(0)).
at((14,25),track(0)).
at((14,26),track(0)).
at((14,27),track(0)).
at((14,28),track(0)).
at((14,29),track(0)).
at((14,30),track(0)).
at((14,31),track(0)).
at((14,32),track(0)).
at((14,33),track(0)).
at((14,34),track(0)).
at((14,35),track(0)).
at((14,36),track(0)).
at((14,37),track(0)).
at((14,38),track(0)).
at((14,39),track(0)).
at((15,0),track(0)).
at((15,1),track(0)).
at((15,2),track(32800)).
at((15,3),track(0)).
at((15,4),track(0)).
at((15,5),track(0)).
at((15,6),track(0)).
at((15,7),track(0)).
at((15,8),track(0)).
at((15,9),track(0)).
at((15,10),track(0)).
at((15,11),track(0)).
at((15,12),track(0)).
at((15,13),track(0)).
at((15,14),track(0)).
at((15,15),track(0)).
at((15,16),track(0)).
at((15,17),track(0)).
at((15,18),track(0)).
at((15,19),track(32800)).
at((15,20),track(0)).
at((15,21),track(0)).
at((15,22),track(0)).
at((15,23),track(16386)).
at((15,24),track(1025)).
at((15,25),track(4608)).
at((15,26),track(0)).
at((15,27),track(0)).
at((15,28),track(0)).
at((15,29),track(0)).
at((15,30),track(0)).
at((15,31),track(0)).
at((15,32),track(0)).
at((15,33),track(0)).
at((15,34),track(0)).
at((15,35),track(0)).
at((15,36),track(0)).
at((15,37),track(0)).
at((15,38),track(0)).
at((15,39),track(0)).
at((16,0),track(0)).
at((16,1),track(0)).
at((16,2),track(32800)).
at((16,3),track(0)).
at((16,4),track(0)).
at((16,5),track(0)).
at((16,6),track(0)).
at((16,7),track(0)).
at((16,8),track(0)).
at((16,9),track(0)).
at((16,10),track(0)).
at((16,11),track(0)).
at((16,12),track(16386)).
at((16,13),track(1025)).
at((16,14),track(1025)).
at((16,15),track(1025)).
at((16,16),track(1025)).
at((16,17),track(1025)).
at((16,18),track(1025)).
at((16,19),track(33825)).
at((16,20),track(1025)).
at((16,21),track(5633)).
at((16,22),track(17411)).
at((16,23),track(3089)).
at((16,24),track(1025)).
at((16,25),track(1097)).
at((16,26),track(5633)).
at((16,27),track(17411)).
at((16,28),track(1025)).
at((16,29),track(4608)).
at((16,30),track(0)).
at((16,31),track(0)).
at((16,32),track(0)).
at((16,33),track(0)).
at((16,34),track(0)).
at((16,35),track(0)).
at((16,36),track(0)).
at((16,37),track(0)).
at((16,38),track(0)).
at((16,39),track(0)).
at((17,0),track(0)).
at((17,1),track(0)).
at((17,2),track(32800)).
at((17,3),track(0)).
at((17,4),track(0)).
at((17,5),track(0)).
at((17,6),track(0)).
at((17,7),track(0)).
at((17,8),track(0)).
at((17,9),track(0)).
at((17,10),track(0)).
at((17,11),track(0)).
at((17,12),track(49186)).
at((17,13),track(1025)).
at((17,14),track(1025)).
at((17,15),track(1025)).
at((17,16),track(1025)).
at((17,17),track(1025)).
at((17,18),track(1025)).
at((17,19),track(38505)).
at((17,20),track(1025)).
at((17,21),track(1097)).
at((17,22),track(3089)).
at((17,23),track(5633)).
at((17,24),track(1025)).
at((17,25),track(17411)).
at((17,26),track(1097)).
at((17,27),track(3089)).
at((17,28),track(1025)).
at((17,29),track(37408)).
at((17,30),track(0)).
at((17,31),track(0)).
at((17,32),track(0)).
at((17,33),track(0)).
at((17,34),track(0)).
at((17,35),track(0)).
at((17,36),track(0)).
at((17,37),track(0)).
at((17,38),track(0)).
at((17,39),track(0)).
at((18,0),track(0)).
at((18,1),track(0)).
at((18,2),track(72)).
at((18,3),track(1025)).
at((18,4),track(5633)).
at((18,5),track(17411)).
at((18,6),track(1025)).
at((18,7),track(1025)).
at((18,8),track(1025)).
at((18,9),track(5633)).
at((18,10),track(17411)).
at((18,11),track(1025)).
at((18,12),track(52275)).
at((18,13),track(5633)).
at((18,14),track(1025)).
at((18,15),track(1025)).
at((18,16),track(1025)).
at((18,17),track(1025)).
at((18,18),track(1025)).
at((18,19),track(2064)).
at((18,20),track(0)).
at((18,21),track(0)).
at((18,22),track(0)).
at((18,23),track(72)).
at((18,24),track(1025)).
at((18,25),track(2064)).
at((18,26),track(0)).
at((18,27),track(0)).
at((18,28),track(0)).
at((18,29),track(32800)).
at((18,30),track(0)).
at((18,31),track(0)).
at((18,32),track(0)).
at((18,33),track(0)).
at((18,34),track(0)).
at((18,35),track(0)).
at((18,36),track(0)).
at((18,37),track(0)).
at((18,38),track(0)).
at((18,39),track(0)).
at((19,0),track(0)).
at((19,1),track(0)).
at((19,2),track(0)).
at((19,3),track(0)).
at((19,4),track(72)).
at((19,5),track(3089)).
at((19,6),track(1025)).
at((19,7),track(1025)).
at((19,8),track(1025)).
at((19,9),track(1097)).
at((19,10),track(2064)).
at((19,11),track(0)).
at((19,12),track(32800)).
at((19,13),track(32800)).
at((19,14),track(0)).
at((19,15),track(0)).
at((19,16),track(0)).
at((19,17),track(0)).
at((19,18),track(0)).
at((19,19),track(0)).
at((19,20),track(0)).
at((19,21),track(0)).
at((19,22),track(0)).
at((19,23),track(0)).
at((19,24),track(0)).
at((19,25),track(0)).
at((19,26),track(0)).
at((19,27),track(0)).
at((19,28),track(0)).
at((19,29),track(32800)).
at((19,30),track(0)).
at((19,31),track(0)).
at((19,32),track(0)).
at((19,33),track(0)).
at((19,34),track(0)).
at((19,35),track(0)).
at((19,36),track(0)).
at((19,37),track(0)).
at((19,38),track(0)).
at((19,39),track(0)).
at((20,0),track(0)).
at((20,1),track(0)).
at((20,2),track(0)).
at((20,3),track(0)).
at((20,4),track(0)).
at((20,5),track(0)).
at((20,6),track(0)).
at((20,7),track(0)).
at((20,8),track(0)).
at((20,9),track(0)).
at((20,10),track(0)).
at((20,11),track(0)).
at((20,12),track(32800)).
at((20,13),track(72)).
at((20,14),track(1025)).
at((20,15),track(1025)).
at((20,16),track(1025)).
at((20,17),track(1025)).
at((20,18),track(1025)).
at((20,19),track(4608)).
at((20,20),track(0)).
at((20,21),track(0)).
at((20,22),track(0)).
at((20,23),track(0)).
at((20,24),track(0)).
at((20,25),track(0)).
at((20,26),track(0)).
at((20,27),track(0)).
at((20,28),track(0)).
at((20,29),track(32800)).
at((20,30),track(0)).
at((20,31),track(0)).
at((20,32),track(0)).
at((20,33),track(0)).
at((20,34),track(0)).
at((20,35),track(0)).
at((20,36),track(0)).
at((20,37),track(0)).
at((20,38),track(0)).
at((20,39),track(0)).
at((21,0),track(0)).
at((21,1),track(0)).
at((21,2),track(0)).
at((21,3),track(0)).
at((21,4),track(0)).
at((21,5),track(0)).
at((21,6),track(0)).
at((21,7),track(0)).
at((21,8),track(0)).
at((21,9),track(0)).
at((21,10),track(0)).
at((21,11),track(0)).
at((21,12),track(72)).
at((21,13),track(1025)).
at((21,14),track(1025)).
at((21,15),track(1025)).
at((21,16),track(1025)).
at((21,17),track(1025)).
at((21,18),track(1025)).
at((21,19),track(1097)).
at((21,20),track(1025)).
at((21,21),track(1025)).
at((21,22),track(1025)).
at((21,23),track(1025)).
at((21,24),track(1025)).
at((21,25),track(1025)).
at((21,26),track(1025)).
at((21,27),track(1025)).
at((21,28),track(1025)).
at((21,29),track(2064)).
at((21,30),track(0)).
at((21,31),track(0)).
at((21,32),track(0)).
at((21,33),track(0)).
at((21,34),track(0)).
at((21,35),track(0)).
at((21,36),track(0)).
at((21,37),track(0)).
at((21,38),track(0)).
at((21,39),track(0)).
at((22,0),track(0)).
at((22,1),track(0)).
at((22,2),track(0)).
at((22,3),track(0)).
at((22,4),track(0)).
at((22,5),track(0)).
at((22,6),track(0)).
at((22,7),track(0)).
at((22,8),track(0)).
at((22,9),track(0)).
at((22,10),track(0)).
at((22,11),track(0)).
at((22,12),track(0)).
at((22,13),track(0)).
at((22,14),track(0)).
at((22,15),track(0)).
at((22,16),track(0)).
at((22,17),track(0)).
at((22,18),track(0)).
at((22,19),track(0)).
at((22,20),track(0)).
at((22,21),track(0)).
at((22,22),track(0)).
at((22,23),track(0)).
at((22,24),track(0)).
at((22,25),track(0)).
at((22,26),track(0)).
at((22,27),track(0)).
at((22,28),track(0)).
at((22,29),track(0)).
at((22,30),track(0)).
at((22,31),track(0)).
at((22,32),track(0)).
at((22,33),track(0)).
at((22,34),track(0)).
at((22,35),track(0)).
at((22,36),track(0)).
at((22,37),track(0)).
at((22,38),track(0)).
at((22,39),track(0)).
at((23,0),track(0)).
at((23,1),track(0)).
at((23,2),track(0)).
at((23,3),track(0)).
at((23,4),track(0)).
at((23,5),track(0)).
at((23,6),track(0)).
at((23,7),track(0)).
at((23,8),track(0)).
at((23,9),track(0)).
at((23,10),track(0)).
at((23,11),track(0)).
at((23,12),track(0)).
at((23,13),track(0)).
at((23,14),track(0)).
at((23,15),track(0)).
at((23,16),track(0)).
at((23,17),track(0)).
at((23,18),track(0)).
at((23,19),track(0)).
at((23,20),track(0)).
at((23,21),track(0)).
at((23,22),track(0)).
at((23,23),track(0)).
at((23,24),track(0)).
at((23,25),track(0)).
at((23,26),track(0)).
at((23,27),track(0)).
at((23,28),track(0)).
at((23,29),track(0)).
at((23,30),track(0)).
at((23,31),track(0)).
at((23,32),track(0)).
at((23,33),track(0)).
at((23,34),track(0)).
at((23,35),track(0)).
at((23,36),track(0)).
at((23,37),track(0)).
at((23,38),track(0)).
at((23,39),track(0)).
at((24,0),track(0)).
at((24,1),track(0)).
at((24,2),track(0)).
at((24,3),track(0)).
at((24,4),track(0)).
at((24,5),track(0)).
at((24,6),track(0)).
at((24,7),track(0)).
at((24,8),track(0)).
at((24,9),track(0)).
at((24,10),track(0)).
at((24,11),track(0)).
at((24,12),track(0)).
at((24,13),track(0)).
at((24,14),track(0)).
at((24,15),track(0)).
at((24,16),track(0)).
at((24,17),track(0)).
at((24,18),track(0)).
at((24,19),track(0)).
at((24,20),track(0)).
at((24,21),track(0)).
at((24,22),track(0)).
at((24,23),track(0)).
at((24,24),track(0)).
at((24,25),track(0)).
at((24,26),track(0)).
at((24,27),track(0)).
at((24,28),track(0)).
at((24,29),track(0)).
at((24,30),track(0)).
at((24,31),track(0)).
at((24,32),track(0)).
at((24,33),track(0)).
at((24,34),track(0)).
at((24,35),track(0)).
at((24,36),track(0)).
at((24,37),track(0)).
at((24,38),track(0)).
at((24,39),track(0)).
at((25,0),track(0)).
at((25,1),track(0)).
at((25,2),track(0)).
at((25,3),track(0)).
at((25,4),track(0)).
at((25,5),track(0)).
at((25,6),track(0)).
at((25,7),track(0)).
at((25,8),track(0)).
at((25,9),track(0)).
at((25,10),track(0)).
at((25,11),track(0)).
at((25,12),track(0)).
at((25,13),track(0)).
at((25,14),track(0)).
at((25,15),track(0)).
at((25,16),track(0)).
at((25,17),track(0)).
at((25,18),track(0)).
at((25,19),track(0)).
at((25,20),track(0)).
at((25,21),track(0)).
at((25,22),track(0)).
at((25,23),track(0)).
at((25,24),track(0)).
at((25,25),track(0)).
at((25,26),track(0)).
at((25,27),track(0)).
at((25,28),track(0)).
at((25,29),track(0)).
at((25,30),track(0)).
at((25,31),track(0)).
at((25,32),track(0)).
at((25,33),track(0)).
at((25,34),track(0)).
at((25,35),track(0)).
at((25,36),track(0)).
at((25,37),track(0)).
at((25,38),track(0)).
at((25,39),track(0)).
at((26,0),track(0)).
at((26,1),track(0)).
at((26,2),track(0)).
at((26,3),track(0)).
at((26,4),track(0)).
at((26,5),track(0)).
at((26,6),track(0)).
at((26,7),track(0)).
at((26,8),track(0)).
at((26,9),track(0)).
at((26,10),track(0)).
at((26,11),track(0)).
at((26,12),track(0)).
at((26,13),track(0)).
at((26,14),track(0)).
at((26,15),track(0)).
at((26,16),track(0)).
at((26,17),track(0)).
at((26,18),track(0)).
at((26,19),track(0)).
at((26,20),track(0)).
at((26,21),track(0)).
at((26,22),track(0)).
at((26,23),track(0)).
at((26,24),track(0)).
at((26,25),track(0)).
at((26,26),track(0)).
at((26,27),track(0)).
at((26,28),track(0)).
at((26,29),track(0)).
at((26,30),track(0)).
at((26,31),track(0)).
at((26,32),track(0)).
at((26,33),track(0)).
at((26,34),track(0)).
at((26,35),track(0)).
at((26,36),track(0)).
at((26,37),track(0)).
at((26,38),track(0)).
at((26,39),track(0)).
at((27,0),track(0)).
at((27,1),track(0)).
at((27,2),track(0)).
at((27,3),track(0)).
at((27,4),track(0)).
at((27,5),track(0)).
at((27,6),track(0)).
at((27,7),track(0)).
at((27,8),track(0)).
at((27,9),track(0)).
at((27,10),track(0)).
at((27,11),track(0)).
at((27,12),track(0)).
at((27,13),track(0)).
at((27,14),track(0)).
at((27,15),track(0)).
at((27,16),track(0)).
at((27,17),track(0)).
at((27,18),track(0)).
at((27,19),track(0)).
at((27,20),track(0)).
at((27,21),track(0)).
at((27,22),track(0)).
at((27,23),track(0)).
at((27,24),track(0)).
at((27,25),track(0)).
at((27,26),track(0)).
at((27,27),track(0)).
at((27,28),track(0)).
at((27,29),track(0)).
at((27,30),track(0)).
at((27,31),track(0)).
at((27,32),track(0)).
at((27,33),track(0)).
at((27,34),track(0)).
at((27,35),track(0)).
at((27,36),track(0)).
at((27,37),track(0)).
at((27,38),track(0)).
at((27,39),track(0)).
at((28,0),track(0)).
at((28,1),track(0)).
at((28,2),track(0)).
at((28,3),track(0)).
at((28,4),track(0)).
at((28,5),track(0)).
at((28,6),track(0)).
at((28,7),track(0)).
at((28,8),track(0)).
at((28,9),track(0)).
at((28,10),track(0)).
at((28,11),track(0)).
at((28,12),track(0)).
at((28,13),track(0)).
at((28,14),track(0)).
at((28,15),track(0)).
at((28,16),track(0)).
at((28,17),track(0)).
at((28,18),track(0)).
at((28,19),track(0)).
at((28,20),track(0)).
at((28,21),track(0)).
at((28,22),track(0)).
at((28,23),track(0)).
at((28,24),track(0)).
at((28,25),track(0)).
at((28,26),track(0)).
at((28,27),track(0)).
at((28,28),track(0)).
at((28,29),track(0)).
at((28,30),track(0)).
at((28,31),track(0)).
at((28,32),track(0)).
at((28,33),track(0)).
at((28,34),track(0)).
at((28,35),track(0)).
at((28,36),track(0)).
at((28,37),track(0)).
at((28,38),track(0)).
at((28,39),track(0)).
at((29,0),track(0)).
at((29,1),track(0)).
at((29,2),track(0)).
at((29,3),track(0)).
at((29,4),track(0)).
at((29,5),track(0)).
at((29,6),track(0)).
at((29,7),track(0)).
at((29,8),track(0)).
at((29,9),track(0)).
at((29,10),track(0)).
at((29,11),track(0)).
at((29,12),track(0)).
at((29,13),track(0)).
at((29,14),track(0)).
at((29,15),track(0)).
at((29,16),track(0)).
at((29,17),track(0)).
at((29,18),track(0)).
at((29,19),track(0)).
at((29,20),track(0)).
at((29,21),track(0)).
at((29,22),track(0)).
at((29,23),track(0)).
at((29,24),track(0)).
at((29,25),track(0)).
at((29,26),track(0)).
at((29,27),track(0)).
at((29,28),track(0)).
at((29,29),track(0)).
at((29,30),track(0)).
at((29,31),track(0)).
at((29,32),track(0)).
at((29,33),track(0)).
at((29,34),track(0)).
at((29,35),track(0)).
at((29,36),track(0)).
at((29,37),track(0)).
at((29,38),track(0)).
at((29,39),track(0)).
at((30,0),track(0)).
at((30,1),track(0)).
at((30,2),track(0)).
at((30,3),track(0)).
at((30,4),track(0)).
at((30,5),track(0)).
at((30,6),track(0)).
at((30,7),track(0)).
at((30,8),track(0)).
at((30,9),track(0)).
at((30,10),track(0)).
at((30,11),track(0)).
at((30,12),track(0)).
at((30,13),track(0)).
at((30,14),track(0)).
at((30,15),track(0)).
at((30,16),track(0)).
at((30,17),track(0)).
at((30,18),track(0)).
at((30,19),track(0)).
at((30,20),track(0)).
at((30,21),track(0)).
at((30,22),track(0)).
at((30,23),track(0)).
at((30,24),track(0)).
at((30,25),track(0)).
at((30,26),track(0)).
at((30,27),track(0)).
at((30,28),track(0)).
at((30,29),track(0)).
at((30,30),track(0)).
at((30,31),track(0)).
at((30,32),track(0)).
at((30,33),track(0)).
at((30,34),track(0)).
at((30,35),track(0)).
at((30,36),track(0)).
at((30,37),track(0)).
at((30,38),track(0)).
at((30,39),track(0)).
at((31,0),track(0)).
at((31,1),track(0)).
at((31,2),track(0)).
at((31,3),track(0)).
at((31,4),track(0)).
at((31,5),track(0)).
at((31,6),track(0)).
at((31,7),track(0)).
at((31,8),track(0)).
at((31,9),track(0)).
at((31,10),track(0)).
at((31,11),track(0)).
at((31,12),track(0)).
at((31,13),track(0)).
at((31,14),track(0)).
at((31,15),track(0)).
at((31,16),track(0)).
at((31,17),track(0)).
at((31,18),track(0)).
at((31,19),track(0)).
at((31,20),track(0)).
at((31,21),track(0)).
at((31,22),track(0)).
at((31,23),track(0)).
at((31,24),track(0)).
at((31,25),track(0)).
at((31,26),track(0)).
at((31,27),track(0)).
at((31,28),track(0)).
at((31,29),track(0)).
at((31,30),track(0)).
at((31,31),track(0)).
at((31,32),track(0)).
at((31,33),track(0)).
at((31,34),track(0)).
at((31,35),track(0)).
at((31,36),track(0)).
at((31,37),track(0)).
at((31,38),track(0)).
at((31,39),track(0)).
at((32,0),track(0)).
at((32,1),track(0)).
at((32,2),track(0)).
at((32,3),track(0)).
at((32,4),track(0)).
at((32,5),track(0)).
at((32,6),track(0)).
at((32,7),track(0)).
at((32,8),track(0)).
at((32,9),track(0)).
at((32,10),track(0)).
at((32,11),track(0)).
at((32,12),track(0)).
at((32,13),track(0)).
at((32,14),track(0)).
at((32,15),track(0)).
at((32,16),track(0)).
at((32,17),track(0)).
at((32,18),track(0)).
at((32,19),track(0)).
at((32,20),track(0)).
at((32,21),track(0)).
at((32,22),track(0)).
at((32,23),track(0)).
at((32,24),track(0)).
at((32,25),track(0)).
at((32,26),track(0)).
at((32,27),track(0)).
at((32,28),track(0)).
at((32,29),track(0)).
at((32,30),track(0)).
at((32,31),track(0)).
at((32,32),track(0)).
at((32,33),track(0)).
at((32,34),track(0)).
at((32,35),track(0)).
at((32,36),track(0)).
at((32,37),track(0)).
at((32,38),track(0)).
at((32,39),track(0)).
at((33,0),track(0)).
at((33,1),track(0)).
at((33,2),track(0)).
at((33,3),track(0)).
at((33,4),track(0)).
at((33,5),track(0)).
at((33,6),track(0)).
at((33,7),track(0)).
at((33,8),track(0)).
at((33,9),track(0)).
at((33,10),track(0)).
at((33,11),track(0)).
at((33,12),track(0)).
at((33,13),track(0)).
at((33,14),track(0)).
at((33,15),track(0)).
at((33,16),track(0)).
at((33,17),track(0)).
at((33,18),track(0)).
at((33,19),track(0)).
at((33,20),track(0)).
at((33,21),track(0)).
at((33,22),track(0)).
at((33,23),track(0)).
at((33,24),track(0)).
at((33,25),track(0)).
at((33,26),track(0)).
at((33,27),track(0)).
at((33,28),track(0)).
at((33,29),track(0)).
at((33,30),track(0)).
at((33,31),track(0)).
at((33,32),track(0)).
at((33,33),track(0)).
at((33,34),track(0)).
at((33,35),track(0)).
at((33,36),track(0)).
at((33,37),track(0)).
at((33,38),track(0)).
at((33,39),track(0)).
at((34,0),track(0)).
at((34,1),track(0)).
at((34,2),track(0)).
at((34,3),track(0)).
at((34,4),track(0)).
at((34,5),track(0)).
at((34,6),track(0)).
at((34,7),track(0)).
at((34,8),track(0)).
at((34,9),track(0)).
at((34,10),track(0)).
at((34,11),track(0)).
at((34,12),track(0)).
at((34,13),track(0)).
at((34,14),track(0)).
at((34,15),track(0)).
at((34,16),track(0)).
at((34,17),track(0)).
at((34,18),track(0)).
at((34,19),track(0)).
at((34,20),track(0)).
at((34,21),track(0)).
at((34,22),track(0)).
at((34,23),track(0)).
at((34,24),track(0)).
at((34,25),track(0)).
at((34,26),track(0)).
at((34,27),track(0)).
at((34,28),track(0)).
at((34,29),track(0)).
at((34,30),track(0)).
at((34,31),track(0)).
at((34,32),track(0)).
at((34,33),track(0)).
at((34,34),track(0)).
at((34,35),track(0)).
at((34,36),track(0)).
at((34,37),track(0)).
at((34,38),track(0)).
at((34,39),track(0)).
at((35,0),track(0)).
at((35,1),track(0)).
at((35,2),track(0)).
at((35,3),track(0)).
at((35,4),track(0)).
at((35,5),track(0)).
at((35,6),track(0)).
at((35,7),track(0)).
at((35,8),track(0)).
at((35,9),track(0)).
at((35,10),track(0)).
at((35,11),track(0)).
at((35,12),track(0)).
at((35,13),track(0)).
at((35,14),track(0)).
at((35,15),track(0)).
at((35,16),track(0)).
at((35,17),track(0)).
at((35,18),track(0)).
at((35,19),track(0)).
at((35,20),track(0)).
at((35,21),track(0)).
at((35,22),track(0)).
at((35,23),track(0)).
at((35,24),track(0)).
at((35,25),track(0)).
at((35,26),track(0)).
at((35,27),track(0)).
at((35,28),track(0)).
at((35,29),track(0)).
at((35,30),track(0)).
at((35,31),track(0)).
at((35,32),track(0)).
at((35,33),track(0)).
at((35,34),track(0)).
at((35,35),track(0)).
at((35,36),track(0)).
at((35,37),track(0)).
at((35,38),track(0)).
at((35,39),track(0)).
at((36,0),track(0)).
at((36,1),track(0)).
at((36,2),track(0)).
at((36,3),track(0)).
at((36,4),track(0)).
at((36,5),track(0)).
at((36,6),track(0)).
at((36,7),track(0)).
at((36,8),track(0)).
at((36,9),track(0)).
at((36,10),track(0)).
at((36,11),track(0)).
at((36,12),track(0)).
at((36,13),track(0)).
at((36,14),track(0)).
at((36,15),track(0)).
at((36,16),track(0)).
at((36,17),track(0)).
at((36,18),track(0)).
at((36,19),track(0)).
at((36,20),track(0)).
at((36,21),track(0)).
at((36,22),track(0)).
at((36,23),track(0)).
at((36,24),track(0)).
at((36,25),track(0)).
at((36,26),track(0)).
at((36,27),track(0)).
at((36,28),track(0)).
at((36,29),track(0)).
at((36,30),track(0)).
at((36,31),track(0)).
at((36,32),track(0)).
at((36,33),track(0)).
at((36,34),track(0)).
at((36,35),track(0)).
at((36,36),track(0)).
at((36,37),track(0)).
at((36,38),track(0)).
at((36,39),track(0)).
at((37,0),track(0)).
at((37,1),track(0)).
at((37,2),track(0)).
at((37,3),track(0)).
at((37,4),track(0)).
at((37,5),track(0)).
at((37,6),track(0)).
at((37,7),track(0)).
at((37,8),track(0)).
at((37,9),track(0)).
at((37,10),track(0)).
at((37,11),track(0)).
at((37,12),track(0)).
at((37,13),track(0)).
at((37,14),track(0)).
at((37,15),track(0)).
at((37,16),track(0)).
at((37,17),track(0)).
at((37,18),track(0)).
at((37,19),track(0)).
at((37,20),track(0)).
at((37,21),track(0)).
at((37,22),track(0)).
at((37,23),track(0)).
at((37,24),track(0)).
at((37,25),track(0)).
at((37,26),track(0)).
at((37,27),track(0)).
at((37,28),track(0)).
at((37,29),track(0)).
at((37,30),track(0)).
at((37,31),track(0)).
at((37,32),track(0)).
at((37,33),track(0)).
at((37,34),track(0)).
at((37,35),track(0)).
at((37,36),track(0)).
at((37,37),track(0)).
at((37,38),track(0)).
at((37,39),track(0)).
at((38,0),track(0)).
at((38,1),track(0)).
at((38,2),track(0)).
at((38,3),track(0)).
at((38,4),track(0)).
at((38,5),track(0)).
at((38,6),track(0)).
at((38,7),track(0)).
at((38,8),track(0)).
at((38,9),track(0)).
at((38,10),track(0)).
at((38,11),track(0)).
at((38,12),track(0)).
at((38,13),track(0)).
at((38,14),track(0)).
at((38,15),track(0)).
at((38,16),track(0)).
at((38,17),track(0)).
at((38,18),track(0)).
at((38,19),track(0)).
at((38,20),track(0)).
at((38,21),track(0)).
at((38,22),track(0)).
at((38,23),track(0)).
at((38,24),track(0)).
at((38,25),track(0)).
at((38,26),track(0)).
at((38,27),track(0)).
at((38,28),track(0)).
at((38,29),track(0)).
at((38,30),track(0)).
at((38,31),track(0)).
at((38,32),track(0)).
at((38,33),track(0)).
at((38,34),track(0)).
at((38,35),track(0)).
at((38,36),track(0)).
at((38,37),track(0)).
at((38,38),track(0)).
at((38,39),track(0)).
at((39,0),track(0)).
at((39,1),track(0)).
at((39,2),track(0)).
at((39,3),track(0)).
at((39,4),track(0)).
at((39,5),track(0)).
at((39,6),track(0)).
at((39,7),track(0)).
at((39,8),track(0)).
at((39,9),track(0)).
at((39,10),track(0)).
at((39,11),track(0)).
at((39,12),track(0)).
at((39,13),track(0)).
at((39,14),track(0)).
at((39,15),track(0)).
at((39,16),track(0)).
at((39,17),track(0)).
at((39,18),track(0)).
at((39,19),track(0)).
at((39,20),track(0)).
at((39,21),track(0)).
at((39,22),track(0)).
at((39,23),track(0)).
at((39,24),track(0)).
at((39,25),track(0)).
at((39,26),track(0)).
at((39,27),track(0)).
at((39,28),track(0)).
at((39,29),track(0)).
at((39,30),track(0)).
at((39,31),track(0)).
at((39,32),track(0)).
at((39,33),track(0)).
at((39,34),track(0)).
at((39,35),track(0)).
at((39,36),track(0)).
at((39,37),track(0)).
at((39,38),track(0)).
at((39,39),track(0)).