object(track(0),track).
object(track(1025),track).
object(track(1097),track).
object(track(16386),track).
object(track(17411),track).
object(track(2064),track).
object(track(3089),track).
object(track(32800),track).
object(track(33825),track).
object(track(37408),track).
object(track(38505),track).
object(track(4608),track).
object(track(49186),track).
object(track(52275),track).
object(track(5633),track).
object(track(72),track).
object(train(0),train).
object(train(1),train).
position((0,0),cell,track(0)).
position((0,10),cell,track(0)).
position((0,11),cell,track(0)).
position((0,12),cell,track(0)).
position((0,13),cell,track(0)).
position((0,14),cell,track(0)).
position((0,15),cell,track(0)).
position((0,16),cell,track(0)).
position((0,17),cell,track(0)).
position((0,18),cell,track(0)).
position((0,19),cell,track(0)).
position((0,1),cell,track(0)).
position((0,20),cell,track(0)).
position((0,21),cell,track(0)).
position((0,22),cell,track(0)).
position((0,23),cell,track(0)).
position((0,24),cell,track(0)).
position((0,25),cell,track(0)).
position((0,26),cell,track(0)).
position((0,27),cell,track(0)).
position((0,28),cell,track(0)).
position((0,29),cell,track(0)).
position((0,2),cell,track(0)).
position((0,30),cell,track(0)).
position((0,31),cell,track(0)).
position((0,32),cell,track(0)).
position((0,33),cell,track(0)).
position((0,34),cell,track(0)).
position((0,35),cell,track(0)).
position((0,36),cell,track(0)).
position((0,37),cell,track(0)).
position((0,38),cell,track(0)).
position((0,39),cell,track(0)).
position((0,3),cell,track(0)).
position((0,4),cell,track(0)).
position((0,5),cell,track(0)).
position((0,6),cell,track(0)).
position((0,7),cell,track(0)).
position((0,8),cell,track(0)).
position((0,9),cell,track(0)).
position((10,0),cell,track(0)).
position((10,10),cell,track(0)).
position((10,11),cell,track(0)).
position((10,12),cell,track(0)).
position((10,13),cell,track(0)).
position((10,14),cell,track(0)).
position((10,15),cell,track(0)).
position((10,16),cell,track(0)).
position((10,17),cell,track(0)).
position((10,18),cell,track(0)).
position((10,19),cell,track(0)).
position((10,1),cell,track(0)).
position((10,20),cell,track(0)).
position((10,21),cell,track(0)).
position((10,22),cell,track(0)).
position((10,23),cell,track(0)).
position((10,24),cell,track(0)).
position((10,25),cell,track(0)).
position((10,26),cell,track(0)).
position((10,27),cell,track(0)).
position((10,28),cell,track(0)).
position((10,29),cell,track(0)).
position((10,2),cell,track(0)).
position((10,30),cell,track(0)).
position((10,31),cell,track(0)).
position((10,32),cell,track(0)).
position((10,33),cell,track(0)).
position((10,34),cell,track(0)).
position((10,35),cell,track(0)).
position((10,36),cell,track(0)).
position((10,37),cell,track(0)).
position((10,38),cell,track(0)).
position((10,39),cell,track(0)).
position((10,3),cell,track(0)).
position((10,4),cell,track(0)).
position((10,5),cell,track(0)).
position((10,6),cell,track(0)).
position((10,7),cell,track(0)).
position((10,8),cell,track(0)).
position((10,9),cell,track(0)).
position((1,0),cell,track(0)).
position((1,10),cell,track(0)).
position((11,0),cell,track(0)).
position((11,10),cell,track(0)).
position((11,11),cell,track(0)).
position((11,12),cell,track(0)).
position((11,13),cell,track(0)).
position((11,14),cell,track(0)).
position((11,15),cell,track(0)).
position((11,16),cell,track(0)).
position((11,17),cell,track(0)).
position((11,18),cell,track(0)).
position((11,19),cell,track(0)).
position((1,11),cell,track(0)).
position((11,1),cell,track(0)).
position((11,20),cell,track(0)).
position((11,21),cell,track(0)).
position((11,22),cell,track(0)).
position((11,23),cell,track(0)).
position((11,24),cell,track(0)).
position((11,25),cell,track(0)).
position((11,26),cell,track(0)).
position((11,27),cell,track(0)).
position((11,28),cell,track(0)).
position((11,29),cell,track(0)).
position((1,12),cell,track(0)).
position((11,2),cell,track(0)).
position((11,30),cell,track(0)).
position((11,31),cell,track(0)).
position((11,32),cell,track(0)).
position((11,33),cell,track(0)).
position((11,34),cell,track(0)).
position((11,35),cell,track(0)).
position((11,36),cell,track(0)).
position((11,37),cell,track(0)).
position((11,38),cell,track(0)).
position((11,39),cell,track(0)).
position((1,13),cell,track(0)).
position((11,3),cell,track(0)).
position((1,14),cell,track(0)).
position((11,4),cell,track(0)).
position((1,15),cell,track(0)).
position((11,5),cell,track(0)).
position((1,16),cell,track(0)).
position((11,6),cell,track(0)).
position((1,17),cell,track(0)).
position((11,7),cell,track(0)).
position((1,18),cell,track(0)).
position((11,8),cell,track(0)).
position((1,19),cell,track(0)).
position((11,9),cell,track(0)).
position((1,1),cell,track(0)).
position((1,20),cell,track(0)).
position((12,0),cell,track(0)).
position((12,10),cell,track(0)).
position((12,11),cell,track(0)).
position((12,12),cell,track(0)).
position((12,13),cell,track(0)).
position((12,14),cell,track(0)).
position((12,15),cell,track(0)).
position((12,16),cell,track(0)).
position((12,17),cell,track(0)).
position((12,18),cell,track(0)).
position((12,19),cell,track(0)).
position((1,21),cell,track(0)).
position((12,1),cell,track(0)).
position((12,20),cell,track(0)).
position((12,21),cell,track(0)).
position((12,22),cell,track(0)).
position((12,23),cell,track(0)).
position((12,24),cell,track(0)).
position((12,25),cell,track(0)).
position((12,26),cell,track(0)).
position((12,27),cell,track(0)).
position((12,28),cell,track(0)).
position((12,29),cell,track(0)).
position((1,22),cell,track(0)).
position((12,2),cell,track(0)).
position((12,30),cell,track(0)).
position((12,31),cell,track(0)).
position((12,32),cell,track(0)).
position((12,33),cell,track(0)).
position((12,34),cell,track(0)).
position((12,35),cell,track(0)).
position((12,36),cell,track(0)).
position((12,37),cell,track(0)).
position((12,38),cell,track(0)).
position((12,39),cell,track(0)).
position((1,23),cell,track(0)).
position((12,3),cell,track(0)).
position((1,24),cell,track(0)).
position((12,4),cell,track(0)).
position((1,25),cell,track(0)).
position((12,5),cell,track(0)).
position((1,26),cell,track(0)).
position((12,6),cell,track(0)).
position((1,27),cell,track(0)).
position((12,7),cell,track(0)).
position((1,28),cell,track(0)).
position((12,8),cell,track(0)).
position((1,29),cell,track(0)).
position((12,9),cell,track(0)).
position((1,2),cell,track(0)).
position((1,30),cell,track(0)).
position((13,0),cell,track(0)).
position((13,10),cell,track(1025)).
position((13,11),cell,track(1025)).
position((13,12),cell,track(1025)).
position((13,13),cell,track(1025)).
position((13,14),cell,track(1025)).
position((13,15),cell,track(1025)).
position((13,16),cell,track(1025)).
position((13,17),cell,track(1025)).
position((13,18),cell,track(1025)).
position((13,19),cell,track(4608)).
position((1,31),cell,track(0)).
position((13,1),cell,track(0)).
position((13,20),cell,track(0)).
position((13,21),cell,track(0)).
position((13,22),cell,track(0)).
position((13,23),cell,track(0)).
position((13,24),cell,track(0)).
position((13,25),cell,track(0)).
position((13,26),cell,track(0)).
position((13,27),cell,track(0)).
position((13,28),cell,track(0)).
position((13,29),cell,track(0)).
position((1,32),cell,track(0)).
position((13,2),cell,track(16386)).
position((13,30),cell,track(0)).
position((13,31),cell,track(0)).
position((13,32),cell,track(0)).
position((13,33),cell,track(0)).
position((13,34),cell,track(0)).
position((13,35),cell,track(0)).
position((13,36),cell,track(0)).
position((13,37),cell,track(0)).
position((13,38),cell,track(0)).
position((13,39),cell,track(0)).
position((1,33),cell,track(0)).
position((13,3),cell,track(1025)).
position((1,34),cell,track(0)).
position((13,4),cell,track(1025)).
position((1,35),cell,track(0)).
position((13,5),cell,track(1025)).
position((1,36),cell,track(0)).
position((13,6),cell,track(1025)).
position((1,37),cell,track(0)).
position((13,7),cell,track(1025)).
position((1,38),cell,track(0)).
position((13,8),cell,track(1025)).
position((1,39),cell,track(0)).
position((13,9),cell,track(1025)).
position((1,3),cell,track(0)).
position((14,0),cell,track(0)).
position((14,10),cell,track(0)).
position((14,11),cell,track(0)).
position((14,12),cell,track(0)).
position((14,13),cell,track(0)).
position((14,14),cell,track(0)).
position((14,15),cell,track(0)).
position((14,16),cell,track(0)).
position((14,17),cell,track(0)).
position((14,18),cell,track(0)).
position((14,19),cell,track(32800)).
position((14,1),cell,track(0)).
position((14,20),cell,track(0)).
position((14,21),cell,track(0)).
position((14,22),cell,track(0)).
position((14,23),cell,track(0)).
position((14,24),cell,track(0)).
position((14,25),cell,track(0)).
position((14,26),cell,track(0)).
position((14,27),cell,track(0)).
position((14,28),cell,track(0)).
position((14,29),cell,track(0)).
position((14,2),cell,track(32800)).
position((14,30),cell,track(0)).
position((14,31),cell,track(0)).
position((14,32),cell,track(0)).
position((14,33),cell,track(0)).
position((14,34),cell,track(0)).
position((14,35),cell,track(0)).
position((14,36),cell,track(0)).
position((14,37),cell,track(0)).
position((14,38),cell,track(0)).
position((14,39),cell,track(0)).
position((14,3),cell,track(0)).
position((14,4),cell,track(0)).
position((14,5),cell,track(0)).
position((14,6),cell,track(0)).
position((14,7),cell,track(0)).
position((14,8),cell,track(0)).
position((14,9),cell,track(0)).
position((1,4),cell,track(0)).
position((15,0),cell,track(0)).
position((15,10),cell,track(0)).
position((15,11),cell,track(0)).
position((15,12),cell,track(0)).
position((15,13),cell,track(0)).
position((15,14),cell,track(0)).
position((15,15),cell,track(0)).
position((15,16),cell,track(0)).
position((15,17),cell,track(0)).
position((15,18),cell,track(0)).
position((15,19),cell,track(32800)).
position((15,1),cell,track(0)).
position((15,20),cell,track(0)).
position((15,21),cell,track(0)).
position((15,22),cell,track(0)).
position((15,23),cell,track(16386)).
position((15,24),cell,track(1025)).
position((15,24),start,train(1)).
position((15,25),cell,track(4608)).
position((15,26),cell,track(0)).
position((15,27),cell,track(0)).
position((15,28),cell,track(0)).
position((15,29),cell,track(0)).
position((15,2),cell,track(32800)).
position((15,30),cell,track(0)).
position((15,31),cell,track(0)).
position((15,32),cell,track(0)).
position((15,33),cell,track(0)).
position((15,34),cell,track(0)).
position((15,35),cell,track(0)).
position((15,36),cell,track(0)).
position((15,37),cell,track(0)).
position((15,38),cell,track(0)).
position((15,39),cell,track(0)).
position((15,3),cell,track(0)).
position((15,4),cell,track(0)).
position((15,5),cell,track(0)).
position((15,6),cell,track(0)).
position((15,7),cell,track(0)).
position((15,8),cell,track(0)).
position((15,9),cell,track(0)).
position((1,5),cell,track(0)).
position((16,0),cell,track(0)).
position((16,10),cell,track(0)).
position((16,11),cell,track(0)).
position((16,12),cell,track(16386)).
position((16,13),cell,track(1025)).
position((16,14),cell,track(1025)).
position((16,15),cell,track(1025)).
position((16,16),cell,track(1025)).
position((16,17),cell,track(1025)).
position((16,18),cell,track(1025)).
position((16,19),cell,track(33825)).
position((16,1),cell,track(0)).
position((16,20),cell,track(1025)).
position((16,21),cell,track(5633)).
position((16,22),cell,track(17411)).
position((16,23),cell,track(3089)).
position((16,24),cell,track(1025)).
position((16,24),end,train(0)).
position((16,25),cell,track(1097)).
position((16,26),cell,track(5633)).
position((16,27),cell,track(17411)).
position((16,28),cell,track(1025)).
position((16,29),cell,track(4608)).
position((16,2),cell,track(32800)).
position((16,30),cell,track(0)).
position((16,31),cell,track(0)).
position((16,32),cell,track(0)).
position((16,33),cell,track(0)).
position((16,34),cell,track(0)).
position((16,35),cell,track(0)).
position((16,36),cell,track(0)).
position((16,37),cell,track(0)).
position((16,38),cell,track(0)).
position((16,39),cell,track(0)).
position((16,3),cell,track(0)).
position((16,4),cell,track(0)).
position((16,5),cell,track(0)).
position((16,6),cell,track(0)).
position((16,7),cell,track(0)).
position((16,8),cell,track(0)).
position((16,9),cell,track(0)).
position((1,6),cell,track(0)).
position((17,0),cell,track(0)).
position((17,10),cell,track(0)).
position((17,11),cell,track(0)).
position((17,12),cell,track(49186)).
position((17,13),cell,track(1025)).
position((17,14),cell,track(1025)).
position((17,15),cell,track(1025)).
position((17,16),cell,track(1025)).
position((17,17),cell,track(1025)).
position((17,18),cell,track(1025)).
position((17,19),cell,track(38505)).
position((17,1),cell,track(0)).
position((17,20),cell,track(1025)).
position((17,21),cell,track(1097)).
position((17,22),cell,track(3089)).
position((17,23),cell,track(5633)).
position((17,24),cell,track(1025)).
position((17,25),cell,track(17411)).
position((17,26),cell,track(1097)).
position((17,27),cell,track(3089)).
position((17,28),cell,track(1025)).
position((17,29),cell,track(37408)).
position((17,2),cell,track(32800)).
position((17,30),cell,track(0)).
position((17,31),cell,track(0)).
position((17,32),cell,track(0)).
position((17,33),cell,track(0)).
position((17,34),cell,track(0)).
position((17,35),cell,track(0)).
position((17,36),cell,track(0)).
position((17,37),cell,track(0)).
position((17,38),cell,track(0)).
position((17,39),cell,track(0)).
position((17,3),cell,track(0)).
position((17,4),cell,track(0)).
position((17,5),cell,track(0)).
position((17,6),cell,track(0)).
position((17,7),cell,track(0)).
position((17,8),cell,track(0)).
position((17,9),cell,track(0)).
position((1,7),cell,track(0)).
position((18,0),cell,track(0)).
position((18,10),cell,track(17411)).
position((18,11),cell,track(1025)).
position((18,12),cell,track(52275)).
position((18,13),cell,track(5633)).
position((18,14),cell,track(1025)).
position((18,15),cell,track(1025)).
position((18,16),cell,track(1025)).
position((18,17),cell,track(1025)).
position((18,18),cell,track(1025)).
position((18,19),cell,track(2064)).
position((18,1),cell,track(0)).
position((18,20),cell,track(0)).
position((18,21),cell,track(0)).
position((18,22),cell,track(0)).
position((18,23),cell,track(72)).
position((18,24),cell,track(1025)).
position((18,25),cell,track(2064)).
position((18,26),cell,track(0)).
position((18,27),cell,track(0)).
position((18,28),cell,track(0)).
position((18,29),cell,track(32800)).
position((18,2),cell,track(72)).
position((18,30),cell,track(0)).
position((18,31),cell,track(0)).
position((18,32),cell,track(0)).
position((18,33),cell,track(0)).
position((18,34),cell,track(0)).
position((18,35),cell,track(0)).
position((18,36),cell,track(0)).
position((18,37),cell,track(0)).
position((18,38),cell,track(0)).
position((18,39),cell,track(0)).
position((18,3),cell,track(1025)).
position((18,4),cell,track(5633)).
position((18,5),cell,track(17411)).
position((18,6),cell,track(1025)).
position((18,7),cell,track(1025)).
position((18,7),start,train(0)).
position((18,8),cell,track(1025)).
position((18,9),cell,track(5633)).
position((1,8),cell,track(0)).
position((19,0),cell,track(0)).
position((19,10),cell,track(2064)).
position((19,11),cell,track(0)).
position((19,12),cell,track(32800)).
position((19,13),cell,track(32800)).
position((19,14),cell,track(0)).
position((19,15),cell,track(0)).
position((19,16),cell,track(0)).
position((19,17),cell,track(0)).
position((19,18),cell,track(0)).
position((19,19),cell,track(0)).
position((19,1),cell,track(0)).
position((19,20),cell,track(0)).
position((19,21),cell,track(0)).
position((19,22),cell,track(0)).
position((19,23),cell,track(0)).
position((19,24),cell,track(0)).
position((19,25),cell,track(0)).
position((19,26),cell,track(0)).
position((19,27),cell,track(0)).
position((19,28),cell,track(0)).
position((19,29),cell,track(32800)).
position((19,2),cell,track(0)).
position((19,30),cell,track(0)).
position((19,31),cell,track(0)).
position((19,32),cell,track(0)).
position((19,33),cell,track(0)).
position((19,34),cell,track(0)).
position((19,35),cell,track(0)).
position((19,36),cell,track(0)).
position((19,37),cell,track(0)).
position((19,38),cell,track(0)).
position((19,39),cell,track(0)).
position((19,3),cell,track(0)).
position((19,4),cell,track(72)).
position((19,5),cell,track(3089)).
position((19,6),cell,track(1025)).
position((19,7),cell,track(1025)).
position((19,7),end,train(1)).
position((19,8),cell,track(1025)).
position((19,9),cell,track(1097)).
position((1,9),cell,track(0)).
position((20,0),cell,track(0)).
position((20,10),cell,track(0)).
position((20,11),cell,track(0)).
position((20,12),cell,track(32800)).
position((20,13),cell,track(72)).
position((20,14),cell,track(1025)).
position((20,15),cell,track(1025)).
position((20,16),cell,track(1025)).
position((20,17),cell,track(1025)).
position((20,18),cell,track(1025)).
position((20,19),cell,track(4608)).
position((20,1),cell,track(0)).
position((20,20),cell,track(0)).
position((20,21),cell,track(0)).
position((20,22),cell,track(0)).
position((20,23),cell,track(0)).
position((20,24),cell,track(0)).
position((20,25),cell,track(0)).
position((20,26),cell,track(0)).
position((20,27),cell,track(0)).
position((20,28),cell,track(0)).
position((20,29),cell,track(32800)).
position((20,2),cell,track(0)).
position((20,30),cell,track(0)).
position((20,31),cell,track(0)).
position((20,32),cell,track(0)).
position((20,33),cell,track(0)).
position((20,34),cell,track(0)).
position((20,35),cell,track(0)).
position((20,36),cell,track(0)).
position((20,37),cell,track(0)).
position((20,38),cell,track(0)).
position((20,39),cell,track(0)).
position((20,3),cell,track(0)).
position((20,4),cell,track(0)).
position((20,5),cell,track(0)).
position((20,6),cell,track(0)).
position((20,7),cell,track(0)).
position((20,8),cell,track(0)).
position((20,9),cell,track(0)).
position((2,0),cell,track(0)).
position((2,10),cell,track(0)).
position((21,0),cell,track(0)).
position((21,10),cell,track(0)).
position((21,11),cell,track(0)).
position((21,12),cell,track(72)).
position((21,13),cell,track(1025)).
position((21,14),cell,track(1025)).
position((21,15),cell,track(1025)).
position((21,16),cell,track(1025)).
position((21,17),cell,track(1025)).
position((21,18),cell,track(1025)).
position((21,19),cell,track(1097)).
position((2,11),cell,track(0)).
position((21,1),cell,track(0)).
position((21,20),cell,track(1025)).
position((21,21),cell,track(1025)).
position((21,22),cell,track(1025)).
position((21,23),cell,track(1025)).
position((21,24),cell,track(1025)).
position((21,25),cell,track(1025)).
position((21,26),cell,track(1025)).
position((21,27),cell,track(1025)).
position((21,28),cell,track(1025)).
position((21,29),cell,track(2064)).
position((2,12),cell,track(0)).
position((21,2),cell,track(0)).
position((21,30),cell,track(0)).
position((21,31),cell,track(0)).
position((21,32),cell,track(0)).
position((21,33),cell,track(0)).
position((21,34),cell,track(0)).
position((21,35),cell,track(0)).
position((21,36),cell,track(0)).
position((21,37),cell,track(0)).
position((21,38),cell,track(0)).
position((21,39),cell,track(0)).
position((2,13),cell,track(0)).
position((21,3),cell,track(0)).
position((2,14),cell,track(0)).
position((21,4),cell,track(0)).
position((2,15),cell,track(0)).
position((21,5),cell,track(0)).
position((2,16),cell,track(0)).
position((21,6),cell,track(0)).
position((2,17),cell,track(0)).
position((21,7),cell,track(0)).
position((2,18),cell,track(0)).
position((21,8),cell,track(0)).
position((2,19),cell,track(0)).
position((21,9),cell,track(0)).
position((2,1),cell,track(0)).
position((2,20),cell,track(0)).
position((22,0),cell,track(0)).
position((22,10),cell,track(0)).
position((22,11),cell,track(0)).
position((22,12),cell,track(0)).
position((22,13),cell,track(0)).
position((22,14),cell,track(0)).
position((22,15),cell,track(0)).
position((22,16),cell,track(0)).
position((22,17),cell,track(0)).
position((22,18),cell,track(0)).
position((22,19),cell,track(0)).
position((2,21),cell,track(0)).
position((22,1),cell,track(0)).
position((22,20),cell,track(0)).
position((22,21),cell,track(0)).
position((22,22),cell,track(0)).
position((22,23),cell,track(0)).
position((22,24),cell,track(0)).
position((22,25),cell,track(0)).
position((22,26),cell,track(0)).
position((22,27),cell,track(0)).
position((22,28),cell,track(0)).
position((22,29),cell,track(0)).
position((2,22),cell,track(0)).
position((22,2),cell,track(0)).
position((22,30),cell,track(0)).
position((22,31),cell,track(0)).
position((22,32),cell,track(0)).
position((22,33),cell,track(0)).
position((22,34),cell,track(0)).
position((22,35),cell,track(0)).
position((22,36),cell,track(0)).
position((22,37),cell,track(0)).
position((22,38),cell,track(0)).
position((22,39),cell,track(0)).
position((2,23),cell,track(0)).
position((22,3),cell,track(0)).
position((2,24),cell,track(0)).
position((22,4),cell,track(0)).
position((2,25),cell,track(0)).
position((22,5),cell,track(0)).
position((2,26),cell,track(0)).
position((22,6),cell,track(0)).
position((2,27),cell,track(0)).
position((22,7),cell,track(0)).
position((2,28),cell,track(0)).
position((22,8),cell,track(0)).
position((2,29),cell,track(0)).
position((22,9),cell,track(0)).
position((2,2),cell,track(0)).
position((2,30),cell,track(0)).
position((23,0),cell,track(0)).
position((23,10),cell,track(0)).
position((23,11),cell,track(0)).
position((23,12),cell,track(0)).
position((23,13),cell,track(0)).
position((23,14),cell,track(0)).
position((23,15),cell,track(0)).
position((23,16),cell,track(0)).
position((23,17),cell,track(0)).
position((23,18),cell,track(0)).
position((23,19),cell,track(0)).
position((2,31),cell,track(0)).
position((23,1),cell,track(0)).
position((23,20),cell,track(0)).
position((23,21),cell,track(0)).
position((23,22),cell,track(0)).
position((23,23),cell,track(0)).
position((23,24),cell,track(0)).
position((23,25),cell,track(0)).
position((23,26),cell,track(0)).
position((23,27),cell,track(0)).
position((23,28),cell,track(0)).
position((23,29),cell,track(0)).
position((2,32),cell,track(0)).
position((23,2),cell,track(0)).
position((23,30),cell,track(0)).
position((23,31),cell,track(0)).
position((23,32),cell,track(0)).
position((23,33),cell,track(0)).
position((23,34),cell,track(0)).
position((23,35),cell,track(0)).
position((23,36),cell,track(0)).
position((23,37),cell,track(0)).
position((23,38),cell,track(0)).
position((23,39),cell,track(0)).
position((2,33),cell,track(0)).
position((23,3),cell,track(0)).
position((2,34),cell,track(0)).
position((23,4),cell,track(0)).
position((2,35),cell,track(0)).
position((23,5),cell,track(0)).
position((2,36),cell,track(0)).
position((23,6),cell,track(0)).
position((2,37),cell,track(0)).
position((23,7),cell,track(0)).
position((2,38),cell,track(0)).
position((23,8),cell,track(0)).
position((2,39),cell,track(0)).
position((23,9),cell,track(0)).
position((2,3),cell,track(0)).
position((24,0),cell,track(0)).
position((24,10),cell,track(0)).
position((24,11),cell,track(0)).
position((24,12),cell,track(0)).
position((24,13),cell,track(0)).
position((24,14),cell,track(0)).
position((24,15),cell,track(0)).
position((24,16),cell,track(0)).
position((24,17),cell,track(0)).
position((24,18),cell,track(0)).
position((24,19),cell,track(0)).
position((24,1),cell,track(0)).
position((24,20),cell,track(0)).
position((24,21),cell,track(0)).
position((24,22),cell,track(0)).
position((24,23),cell,track(0)).
position((24,24),cell,track(0)).
position((24,25),cell,track(0)).
position((24,26),cell,track(0)).
position((24,27),cell,track(0)).
position((24,28),cell,track(0)).
position((24,29),cell,track(0)).
position((24,2),cell,track(0)).
position((24,30),cell,track(0)).
position((24,31),cell,track(0)).
position((24,32),cell,track(0)).
position((24,33),cell,track(0)).
position((24,34),cell,track(0)).
position((24,35),cell,track(0)).
position((24,36),cell,track(0)).
position((24,37),cell,track(0)).
position((24,38),cell,track(0)).
position((24,39),cell,track(0)).
position((24,3),cell,track(0)).
position((24,4),cell,track(0)).
position((24,5),cell,track(0)).
position((24,6),cell,track(0)).
position((24,7),cell,track(0)).
position((24,8),cell,track(0)).
position((24,9),cell,track(0)).
position((2,4),cell,track(0)).
position((25,0),cell,track(0)).
position((25,10),cell,track(0)).
position((25,11),cell,track(0)).
position((25,12),cell,track(0)).
position((25,13),cell,track(0)).
position((25,14),cell,track(0)).
position((25,15),cell,track(0)).
position((25,16),cell,track(0)).
position((25,17),cell,track(0)).
position((25,18),cell,track(0)).
position((25,19),cell,track(0)).
position((25,1),cell,track(0)).
position((25,20),cell,track(0)).
position((25,21),cell,track(0)).
position((25,22),cell,track(0)).
position((25,23),cell,track(0)).
position((25,24),cell,track(0)).
position((25,25),cell,track(0)).
position((25,26),cell,track(0)).
position((25,27),cell,track(0)).
position((25,28),cell,track(0)).
position((25,29),cell,track(0)).
position((25,2),cell,track(0)).
position((25,30),cell,track(0)).
position((25,31),cell,track(0)).
position((25,32),cell,track(0)).
position((25,33),cell,track(0)).
position((25,34),cell,track(0)).
position((25,35),cell,track(0)).
position((25,36),cell,track(0)).
position((25,37),cell,track(0)).
position((25,38),cell,track(0)).
position((25,39),cell,track(0)).
position((25,3),cell,track(0)).
position((25,4),cell,track(0)).
position((25,5),cell,track(0)).
position((25,6),cell,track(0)).
position((25,7),cell,track(0)).
position((25,8),cell,track(0)).
position((25,9),cell,track(0)).
position((2,5),cell,track(0)).
position((26,0),cell,track(0)).
position((26,10),cell,track(0)).
position((26,11),cell,track(0)).
position((26,12),cell,track(0)).
position((26,13),cell,track(0)).
position((26,14),cell,track(0)).
position((26,15),cell,track(0)).
position((26,16),cell,track(0)).
position((26,17),cell,track(0)).
position((26,18),cell,track(0)).
position((26,19),cell,track(0)).
position((26,1),cell,track(0)).
position((26,20),cell,track(0)).
position((26,21),cell,track(0)).
position((26,22),cell,track(0)).
position((26,23),cell,track(0)).
position((26,24),cell,track(0)).
position((26,25),cell,track(0)).
position((26,26),cell,track(0)).
position((26,27),cell,track(0)).
position((26,28),cell,track(0)).
position((26,29),cell,track(0)).
position((26,2),cell,track(0)).
position((26,30),cell,track(0)).
position((26,31),cell,track(0)).
position((26,32),cell,track(0)).
position((26,33),cell,track(0)).
position((26,34),cell,track(0)).
position((26,35),cell,track(0)).
position((26,36),cell,track(0)).
position((26,37),cell,track(0)).
position((26,38),cell,track(0)).
position((26,39),cell,track(0)).
position((26,3),cell,track(0)).
position((26,4),cell,track(0)).
position((26,5),cell,track(0)).
position((26,6),cell,track(0)).
position((26,7),cell,track(0)).
position((26,8),cell,track(0)).
position((26,9),cell,track(0)).
position((2,6),cell,track(0)).
position((27,0),cell,track(0)).
position((27,10),cell,track(0)).
position((27,11),cell,track(0)).
position((27,12),cell,track(0)).
position((27,13),cell,track(0)).
position((27,14),cell,track(0)).
position((27,15),cell,track(0)).
position((27,16),cell,track(0)).
position((27,17),cell,track(0)).
position((27,18),cell,track(0)).
position((27,19),cell,track(0)).
position((27,1),cell,track(0)).
position((27,20),cell,track(0)).
position((27,21),cell,track(0)).
position((27,22),cell,track(0)).
position((27,23),cell,track(0)).
position((27,24),cell,track(0)).
position((27,25),cell,track(0)).
position((27,26),cell,track(0)).
position((27,27),cell,track(0)).
position((27,28),cell,track(0)).
position((27,29),cell,track(0)).
position((27,2),cell,track(0)).
position((27,30),cell,track(0)).
position((27,31),cell,track(0)).
position((27,32),cell,track(0)).
position((27,33),cell,track(0)).
position((27,34),cell,track(0)).
position((27,35),cell,track(0)).
position((27,36),cell,track(0)).
position((27,37),cell,track(0)).
position((27,38),cell,track(0)).
position((27,39),cell,track(0)).
position((27,3),cell,track(0)).
position((27,4),cell,track(0)).
position((27,5),cell,track(0)).
position((27,6),cell,track(0)).
position((27,7),cell,track(0)).
position((27,8),cell,track(0)).
position((27,9),cell,track(0)).
position((2,7),cell,track(0)).
position((28,0),cell,track(0)).
position((28,10),cell,track(0)).
position((28,11),cell,track(0)).
position((28,12),cell,track(0)).
position((28,13),cell,track(0)).
position((28,14),cell,track(0)).
position((28,15),cell,track(0)).
position((28,16),cell,track(0)).
position((28,17),cell,track(0)).
position((28,18),cell,track(0)).
position((28,19),cell,track(0)).
position((28,1),cell,track(0)).
position((28,20),cell,track(0)).
position((28,21),cell,track(0)).
position((28,22),cell,track(0)).
position((28,23),cell,track(0)).
position((28,24),cell,track(0)).
position((28,25),cell,track(0)).
position((28,26),cell,track(0)).
position((28,27),cell,track(0)).
position((28,28),cell,track(0)).
position((28,29),cell,track(0)).
position((28,2),cell,track(0)).
position((28,30),cell,track(0)).
position((28,31),cell,track(0)).
position((28,32),cell,track(0)).
position((28,33),cell,track(0)).
position((28,34),cell,track(0)).
position((28,35),cell,track(0)).
position((28,36),cell,track(0)).
position((28,37),cell,track(0)).
position((28,38),cell,track(0)).
position((28,39),cell,track(0)).
position((28,3),cell,track(0)).
position((28,4),cell,track(0)).
position((28,5),cell,track(0)).
position((28,6),cell,track(0)).
position((28,7),cell,track(0)).
position((28,8),cell,track(0)).
position((28,9),cell,track(0)).
position((2,8),cell,track(0)).
position((29,0),cell,track(0)).
position((29,10),cell,track(0)).
position((29,11),cell,track(0)).
position((29,12),cell,track(0)).
position((29,13),cell,track(0)).
position((29,14),cell,track(0)).
position((29,15),cell,track(0)).
position((29,16),cell,track(0)).
position((29,17),cell,track(0)).
position((29,18),cell,track(0)).
position((29,19),cell,track(0)).
position((29,1),cell,track(0)).
position((29,20),cell,track(0)).
position((29,21),cell,track(0)).
position((29,22),cell,track(0)).
position((29,23),cell,track(0)).
position((29,24),cell,track(0)).
position((29,25),cell,track(0)).
position((29,26),cell,track(0)).
position((29,27),cell,track(0)).
position((29,28),cell,track(0)).
position((29,29),cell,track(0)).
position((29,2),cell,track(0)).
position((29,30),cell,track(0)).
position((29,31),cell,track(0)).
position((29,32),cell,track(0)).
position((29,33),cell,track(0)).
position((29,34),cell,track(0)).
position((29,35),cell,track(0)).
position((29,36),cell,track(0)).
position((29,37),cell,track(0)).
position((29,38),cell,track(0)).
position((29,39),cell,track(0)).
position((29,3),cell,track(0)).
position((29,4),cell,track(0)).
position((29,5),cell,track(0)).
position((29,6),cell,track(0)).
position((29,7),cell,track(0)).
position((29,8),cell,track(0)).
position((29,9),cell,track(0)).
position((2,9),cell,track(0)).
position((30,0),cell,track(0)).
position((30,10),cell,track(0)).
position((30,11),cell,track(0)).
position((30,12),cell,track(0)).
position((30,13),cell,track(0)).
position((30,14),cell,track(0)).
position((30,15),cell,track(0)).
position((30,16),cell,track(0)).
position((30,17),cell,track(0)).
position((30,18),cell,track(0)).
position((30,19),cell,track(0)).
position((30,1),cell,track(0)).
position((30,20),cell,track(0)).
position((30,21),cell,track(0)).
position((30,22),cell,track(0)).
position((30,23),cell,track(0)).
position((30,24),cell,track(0)).
position((30,25),cell,track(0)).
position((30,26),cell,track(0)).
position((30,27),cell,track(0)).
position((30,28),cell,track(0)).
position((30,29),cell,track(0)).
position((30,2),cell,track(0)).
position((30,30),cell,track(0)).
position((30,31),cell,track(0)).
position((30,32),cell,track(0)).
position((30,33),cell,track(0)).
position((30,34),cell,track(0)).
position((30,35),cell,track(0)).
position((30,36),cell,track(0)).
position((30,37),cell,track(0)).
position((30,38),cell,track(0)).
position((30,39),cell,track(0)).
position((30,3),cell,track(0)).
position((30,4),cell,track(0)).
position((30,5),cell,track(0)).
position((30,6),cell,track(0)).
position((30,7),cell,track(0)).
position((30,8),cell,track(0)).
position((30,9),cell,track(0)).
position((3,0),cell,track(0)).
position((3,10),cell,track(0)).
position((31,0),cell,track(0)).
position((31,10),cell,track(0)).
position((31,11),cell,track(0)).
position((31,12),cell,track(0)).
position((31,13),cell,track(0)).
position((31,14),cell,track(0)).
position((31,15),cell,track(0)).
position((31,16),cell,track(0)).
position((31,17),cell,track(0)).
position((31,18),cell,track(0)).
position((31,19),cell,track(0)).
position((3,11),cell,track(0)).
position((31,1),cell,track(0)).
position((31,20),cell,track(0)).
position((31,21),cell,track(0)).
position((31,22),cell,track(0)).
position((31,23),cell,track(0)).
position((31,24),cell,track(0)).
position((31,25),cell,track(0)).
position((31,26),cell,track(0)).
position((31,27),cell,track(0)).
position((31,28),cell,track(0)).
position((31,29),cell,track(0)).
position((3,12),cell,track(0)).
position((31,2),cell,track(0)).
position((31,30),cell,track(0)).
position((31,31),cell,track(0)).
position((31,32),cell,track(0)).
position((31,33),cell,track(0)).
position((31,34),cell,track(0)).
position((31,35),cell,track(0)).
position((31,36),cell,track(0)).
position((31,37),cell,track(0)).
position((31,38),cell,track(0)).
position((31,39),cell,track(0)).
position((3,13),cell,track(0)).
position((31,3),cell,track(0)).
position((3,14),cell,track(0)).
position((31,4),cell,track(0)).
position((3,15),cell,track(0)).
position((31,5),cell,track(0)).
position((3,16),cell,track(0)).
position((31,6),cell,track(0)).
position((3,17),cell,track(0)).
position((31,7),cell,track(0)).
position((3,18),cell,track(0)).
position((31,8),cell,track(0)).
position((3,19),cell,track(0)).
position((31,9),cell,track(0)).
position((3,1),cell,track(0)).
position((3,20),cell,track(0)).
position((32,0),cell,track(0)).
position((32,10),cell,track(0)).
position((32,11),cell,track(0)).
position((32,12),cell,track(0)).
position((32,13),cell,track(0)).
position((32,14),cell,track(0)).
position((32,15),cell,track(0)).
position((32,16),cell,track(0)).
position((32,17),cell,track(0)).
position((32,18),cell,track(0)).
position((32,19),cell,track(0)).
position((3,21),cell,track(0)).
position((32,1),cell,track(0)).
position((32,20),cell,track(0)).
position((32,21),cell,track(0)).
position((32,22),cell,track(0)).
position((32,23),cell,track(0)).
position((32,24),cell,track(0)).
position((32,25),cell,track(0)).
position((32,26),cell,track(0)).
position((32,27),cell,track(0)).
position((32,28),cell,track(0)).
position((32,29),cell,track(0)).
position((3,22),cell,track(0)).
position((32,2),cell,track(0)).
position((32,30),cell,track(0)).
position((32,31),cell,track(0)).
position((32,32),cell,track(0)).
position((32,33),cell,track(0)).
position((32,34),cell,track(0)).
position((32,35),cell,track(0)).
position((32,36),cell,track(0)).
position((32,37),cell,track(0)).
position((32,38),cell,track(0)).
position((32,39),cell,track(0)).
position((3,23),cell,track(0)).
position((32,3),cell,track(0)).
position((3,24),cell,track(0)).
position((32,4),cell,track(0)).
position((3,25),cell,track(0)).
position((32,5),cell,track(0)).
position((3,26),cell,track(0)).
position((32,6),cell,track(0)).
position((3,27),cell,track(0)).
position((32,7),cell,track(0)).
position((3,28),cell,track(0)).
position((32,8),cell,track(0)).
position((3,29),cell,track(0)).
position((32,9),cell,track(0)).
position((3,2),cell,track(0)).
position((3,30),cell,track(0)).
position((33,0),cell,track(0)).
position((33,10),cell,track(0)).
position((33,11),cell,track(0)).
position((33,12),cell,track(0)).
position((33,13),cell,track(0)).
position((33,14),cell,track(0)).
position((33,15),cell,track(0)).
position((33,16),cell,track(0)).
position((33,17),cell,track(0)).
position((33,18),cell,track(0)).
position((33,19),cell,track(0)).
position((3,31),cell,track(0)).
position((33,1),cell,track(0)).
position((33,20),cell,track(0)).
position((33,21),cell,track(0)).
position((33,22),cell,track(0)).
position((33,23),cell,track(0)).
position((33,24),cell,track(0)).
position((33,25),cell,track(0)).
position((33,26),cell,track(0)).
position((33,27),cell,track(0)).
position((33,28),cell,track(0)).
position((33,29),cell,track(0)).
position((3,32),cell,track(0)).
position((33,2),cell,track(0)).
position((33,30),cell,track(0)).
position((33,31),cell,track(0)).
position((33,32),cell,track(0)).
position((33,33),cell,track(0)).
position((33,34),cell,track(0)).
position((33,35),cell,track(0)).
position((33,36),cell,track(0)).
position((33,37),cell,track(0)).
position((33,38),cell,track(0)).
position((33,39),cell,track(0)).
position((3,33),cell,track(0)).
position((33,3),cell,track(0)).
position((3,34),cell,track(0)).
position((33,4),cell,track(0)).
position((3,35),cell,track(0)).
position((33,5),cell,track(0)).
position((3,36),cell,track(0)).
position((33,6),cell,track(0)).
position((3,37),cell,track(0)).
position((33,7),cell,track(0)).
position((3,38),cell,track(0)).
position((33,8),cell,track(0)).
position((3,39),cell,track(0)).
position((33,9),cell,track(0)).
position((3,3),cell,track(0)).
position((34,0),cell,track(0)).
position((34,10),cell,track(0)).
position((34,11),cell,track(0)).
position((34,12),cell,track(0)).
position((34,13),cell,track(0)).
position((34,14),cell,track(0)).
position((34,15),cell,track(0)).
position((34,16),cell,track(0)).
position((34,17),cell,track(0)).
position((34,18),cell,track(0)).
position((34,19),cell,track(0)).
position((34,1),cell,track(0)).
position((34,20),cell,track(0)).
position((34,21),cell,track(0)).
position((34,22),cell,track(0)).
position((34,23),cell,track(0)).
position((34,24),cell,track(0)).
position((34,25),cell,track(0)).
position((34,26),cell,track(0)).
position((34,27),cell,track(0)).
position((34,28),cell,track(0)).
position((34,29),cell,track(0)).
position((34,2),cell,track(0)).
position((34,30),cell,track(0)).
position((34,31),cell,track(0)).
position((34,32),cell,track(0)).
position((34,33),cell,track(0)).
position((34,34),cell,track(0)).
position((34,35),cell,track(0)).
position((34,36),cell,track(0)).
position((34,37),cell,track(0)).
position((34,38),cell,track(0)).
position((34,39),cell,track(0)).
position((34,3),cell,track(0)).
position((34,4),cell,track(0)).
position((34,5),cell,track(0)).
position((34,6),cell,track(0)).
position((34,7),cell,track(0)).
position((34,8),cell,track(0)).
position((34,9),cell,track(0)).
position((3,4),cell,track(0)).
position((35,0),cell,track(0)).
position((35,10),cell,track(0)).
position((35,11),cell,track(0)).
position((35,12),cell,track(0)).
position((35,13),cell,track(0)).
position((35,14),cell,track(0)).
position((35,15),cell,track(0)).
position((35,16),cell,track(0)).
position((35,17),cell,track(0)).
position((35,18),cell,track(0)).
position((35,19),cell,track(0)).
position((35,1),cell,track(0)).
position((35,20),cell,track(0)).
position((35,21),cell,track(0)).
position((35,22),cell,track(0)).
position((35,23),cell,track(0)).
position((35,24),cell,track(0)).
position((35,25),cell,track(0)).
position((35,26),cell,track(0)).
position((35,27),cell,track(0)).
position((35,28),cell,track(0)).
position((35,29),cell,track(0)).
position((35,2),cell,track(0)).
position((35,30),cell,track(0)).
position((35,31),cell,track(0)).
position((35,32),cell,track(0)).
position((35,33),cell,track(0)).
position((35,34),cell,track(0)).
position((35,35),cell,track(0)).
position((35,36),cell,track(0)).
position((35,37),cell,track(0)).
position((35,38),cell,track(0)).
position((35,39),cell,track(0)).
position((35,3),cell,track(0)).
position((35,4),cell,track(0)).
position((35,5),cell,track(0)).
position((35,6),cell,track(0)).
position((35,7),cell,track(0)).
position((35,8),cell,track(0)).
position((35,9),cell,track(0)).
position((3,5),cell,track(0)).
position((36,0),cell,track(0)).
position((36,10),cell,track(0)).
position((36,11),cell,track(0)).
position((36,12),cell,track(0)).
position((36,13),cell,track(0)).
position((36,14),cell,track(0)).
position((36,15),cell,track(0)).
position((36,16),cell,track(0)).
position((36,17),cell,track(0)).
position((36,18),cell,track(0)).
position((36,19),cell,track(0)).
position((36,1),cell,track(0)).
position((36,20),cell,track(0)).
position((36,21),cell,track(0)).
position((36,22),cell,track(0)).
position((36,23),cell,track(0)).
position((36,24),cell,track(0)).
position((36,25),cell,track(0)).
position((36,26),cell,track(0)).
position((36,27),cell,track(0)).
position((36,28),cell,track(0)).
position((36,29),cell,track(0)).
position((36,2),cell,track(0)).
position((36,30),cell,track(0)).
position((36,31),cell,track(0)).
position((36,32),cell,track(0)).
position((36,33),cell,track(0)).
position((36,34),cell,track(0)).
position((36,35),cell,track(0)).
position((36,36),cell,track(0)).
position((36,37),cell,track(0)).
position((36,38),cell,track(0)).
position((36,39),cell,track(0)).
position((36,3),cell,track(0)).
position((36,4),cell,track(0)).
position((36,5),cell,track(0)).
position((36,6),cell,track(0)).
position((36,7),cell,track(0)).
position((36,8),cell,track(0)).
position((36,9),cell,track(0)).
position((3,6),cell,track(0)).
position((37,0),cell,track(0)).
position((37,10),cell,track(0)).
position((37,11),cell,track(0)).
position((37,12),cell,track(0)).
position((37,13),cell,track(0)).
position((37,14),cell,track(0)).
position((37,15),cell,track(0)).
position((37,16),cell,track(0)).
position((37,17),cell,track(0)).
position((37,18),cell,track(0)).
position((37,19),cell,track(0)).
position((37,1),cell,track(0)).
position((37,20),cell,track(0)).
position((37,21),cell,track(0)).
position((37,22),cell,track(0)).
position((37,23),cell,track(0)).
position((37,24),cell,track(0)).
position((37,25),cell,track(0)).
position((37,26),cell,track(0)).
position((37,27),cell,track(0)).
position((37,28),cell,track(0)).
position((37,29),cell,track(0)).
position((37,2),cell,track(0)).
position((37,30),cell,track(0)).
position((37,31),cell,track(0)).
position((37,32),cell,track(0)).
position((37,33),cell,track(0)).
position((37,34),cell,track(0)).
position((37,35),cell,track(0)).
position((37,36),cell,track(0)).
position((37,37),cell,track(0)).
position((37,38),cell,track(0)).
position((37,39),cell,track(0)).
position((37,3),cell,track(0)).
position((37,4),cell,track(0)).
position((37,5),cell,track(0)).
position((37,6),cell,track(0)).
position((37,7),cell,track(0)).
position((37,8),cell,track(0)).
position((37,9),cell,track(0)).
position((3,7),cell,track(0)).
position((38,0),cell,track(0)).
position((38,10),cell,track(0)).
position((38,11),cell,track(0)).
position((38,12),cell,track(0)).
position((38,13),cell,track(0)).
position((38,14),cell,track(0)).
position((38,15),cell,track(0)).
position((38,16),cell,track(0)).
position((38,17),cell,track(0)).
position((38,18),cell,track(0)).
position((38,19),cell,track(0)).
position((38,1),cell,track(0)).
position((38,20),cell,track(0)).
position((38,21),cell,track(0)).
position((38,22),cell,track(0)).
position((38,23),cell,track(0)).
position((38,24),cell,track(0)).
position((38,25),cell,track(0)).
position((38,26),cell,track(0)).
position((38,27),cell,track(0)).
position((38,28),cell,track(0)).
position((38,29),cell,track(0)).
position((38,2),cell,track(0)).
position((38,30),cell,track(0)).
position((38,31),cell,track(0)).
position((38,32),cell,track(0)).
position((38,33),cell,track(0)).
position((38,34),cell,track(0)).
position((38,35),cell,track(0)).
position((38,36),cell,track(0)).
position((38,37),cell,track(0)).
position((38,38),cell,track(0)).
position((38,39),cell,track(0)).
position((38,3),cell,track(0)).
position((38,4),cell,track(0)).
position((38,5),cell,track(0)).
position((38,6),cell,track(0)).
position((38,7),cell,track(0)).
position((38,8),cell,track(0)).
position((38,9),cell,track(0)).
position((3,8),cell,track(0)).
position((39,0),cell,track(0)).
position((39,10),cell,track(0)).
position((39,11),cell,track(0)).
position((39,12),cell,track(0)).
position((39,13),cell,track(0)).
position((39,14),cell,track(0)).
position((39,15),cell,track(0)).
position((39,16),cell,track(0)).
position((39,17),cell,track(0)).
position((39,18),cell,track(0)).
position((39,19),cell,track(0)).
position((39,1),cell,track(0)).
position((39,20),cell,track(0)).
position((39,21),cell,track(0)).
position((39,22),cell,track(0)).
position((39,23),cell,track(0)).
position((39,24),cell,track(0)).
position((39,25),cell,track(0)).
position((39,26),cell,track(0)).
position((39,27),cell,track(0)).
position((39,28),cell,track(0)).
position((39,29),cell,track(0)).
position((39,2),cell,track(0)).
position((39,30),cell,track(0)).
position((39,31),cell,track(0)).
position((39,32),cell,track(0)).
position((39,33),cell,track(0)).
position((39,34),cell,track(0)).
position((39,35),cell,track(0)).
position((39,36),cell,track(0)).
position((39,37),cell,track(0)).
position((39,38),cell,track(0)).
position((39,39),cell,track(0)).
position((39,3),cell,track(0)).
position((39,4),cell,track(0)).
position((39,5),cell,track(0)).
position((39,6),cell,track(0)).
position((39,7),cell,track(0)).
position((39,8),cell,track(0)).
position((39,9),cell,track(0)).
position((3,9),cell,track(0)).
position((4,0),cell,track(0)).
position((4,10),cell,track(0)).
position((4,11),cell,track(0)).
position((4,12),cell,track(0)).
position((4,13),cell,track(0)).
position((4,14),cell,track(0)).
position((4,15),cell,track(0)).
position((4,16),cell,track(0)).
position((4,17),cell,track(0)).
position((4,18),cell,track(0)).
position((4,19),cell,track(0)).
position((4,1),cell,track(0)).
position((4,20),cell,track(0)).
position((4,21),cell,track(0)).
position((4,22),cell,track(0)).
position((4,23),cell,track(0)).
position((4,24),cell,track(0)).
position((4,25),cell,track(0)).
position((4,26),cell,track(0)).
position((4,27),cell,track(0)).
position((4,28),cell,track(0)).
position((4,29),cell,track(0)).
position((4,2),cell,track(0)).
position((4,30),cell,track(0)).
position((4,31),cell,track(0)).
position((4,32),cell,track(0)).
position((4,33),cell,track(0)).
position((4,34),cell,track(0)).
position((4,35),cell,track(0)).
position((4,36),cell,track(0)).
position((4,37),cell,track(0)).
position((4,38),cell,track(0)).
position((4,39),cell,track(0)).
position((4,3),cell,track(0)).
position((4,4),cell,track(0)).
position((4,5),cell,track(0)).
position((4,6),cell,track(0)).
position((4,7),cell,track(0)).
position((4,8),cell,track(0)).
position((4,9),cell,track(0)).
position((5,0),cell,track(0)).
position((5,10),cell,track(0)).
position((5,11),cell,track(0)).
position((5,12),cell,track(0)).
position((5,13),cell,track(0)).
position((5,14),cell,track(0)).
position((5,15),cell,track(0)).
position((5,16),cell,track(0)).
position((5,17),cell,track(0)).
position((5,18),cell,track(0)).
position((5,19),cell,track(0)).
position((5,1),cell,track(0)).
position((5,20),cell,track(0)).
position((5,21),cell,track(0)).
position((5,22),cell,track(0)).
position((5,23),cell,track(0)).
position((5,24),cell,track(0)).
position((5,25),cell,track(0)).
position((5,26),cell,track(0)).
position((5,27),cell,track(0)).
position((5,28),cell,track(0)).
position((5,29),cell,track(0)).
position((5,2),cell,track(0)).
position((5,30),cell,track(0)).
position((5,31),cell,track(0)).
position((5,32),cell,track(0)).
position((5,33),cell,track(0)).
position((5,34),cell,track(0)).
position((5,35),cell,track(0)).
position((5,36),cell,track(0)).
position((5,37),cell,track(0)).
position((5,38),cell,track(0)).
position((5,39),cell,track(0)).
position((5,3),cell,track(0)).
position((5,4),cell,track(0)).
position((5,5),cell,track(0)).
position((5,6),cell,track(0)).
position((5,7),cell,track(0)).
position((5,8),cell,track(0)).
position((5,9),cell,track(0)).
position((6,0),cell,track(0)).
position((6,10),cell,track(0)).
position((6,11),cell,track(0)).
position((6,12),cell,track(0)).
position((6,13),cell,track(0)).
position((6,14),cell,track(0)).
position((6,15),cell,track(0)).
position((6,16),cell,track(0)).
position((6,17),cell,track(0)).
position((6,18),cell,track(0)).
position((6,19),cell,track(0)).
position((6,1),cell,track(0)).
position((6,20),cell,track(0)).
position((6,21),cell,track(0)).
position((6,22),cell,track(0)).
position((6,23),cell,track(0)).
position((6,24),cell,track(0)).
position((6,25),cell,track(0)).
position((6,26),cell,track(0)).
position((6,27),cell,track(0)).
position((6,28),cell,track(0)).
position((6,29),cell,track(0)).
position((6,2),cell,track(0)).
position((6,30),cell,track(0)).
position((6,31),cell,track(0)).
position((6,32),cell,track(0)).
position((6,33),cell,track(0)).
position((6,34),cell,track(0)).
position((6,35),cell,track(0)).
position((6,36),cell,track(0)).
position((6,37),cell,track(0)).
position((6,38),cell,track(0)).
position((6,39),cell,track(0)).
position((6,3),cell,track(0)).
position((6,4),cell,track(0)).
position((6,5),cell,track(0)).
position((6,6),cell,track(0)).
position((6,7),cell,track(0)).
position((6,8),cell,track(0)).
position((6,9),cell,track(0)).
position((7,0),cell,track(0)).
position((7,10),cell,track(0)).
position((7,11),cell,track(0)).
position((7,12),cell,track(0)).
position((7,13),cell,track(0)).
position((7,14),cell,track(0)).
position((7,15),cell,track(0)).
position((7,16),cell,track(0)).
position((7,17),cell,track(0)).
position((7,18),cell,track(0)).
position((7,19),cell,track(0)).
position((7,1),cell,track(0)).
position((7,20),cell,track(0)).
position((7,21),cell,track(0)).
position((7,22),cell,track(0)).
position((7,23),cell,track(0)).
position((7,24),cell,track(0)).
position((7,25),cell,track(0)).
position((7,26),cell,track(0)).
position((7,27),cell,track(0)).
position((7,28),cell,track(0)).
position((7,29),cell,track(0)).
position((7,2),cell,track(0)).
position((7,30),cell,track(0)).
position((7,31),cell,track(0)).
position((7,32),cell,track(0)).
position((7,33),cell,track(0)).
position((7,34),cell,track(0)).
position((7,35),cell,track(0)).
position((7,36),cell,track(0)).
position((7,37),cell,track(0)).
position((7,38),cell,track(0)).
position((7,39),cell,track(0)).
position((7,3),cell,track(0)).
position((7,4),cell,track(0)).
position((7,5),cell,track(0)).
position((7,6),cell,track(0)).
position((7,7),cell,track(0)).
position((7,8),cell,track(0)).
position((7,9),cell,track(0)).
position((8,0),cell,track(0)).
position((8,10),cell,track(0)).
position((8,11),cell,track(0)).
position((8,12),cell,track(0)).
position((8,13),cell,track(0)).
position((8,14),cell,track(0)).
position((8,15),cell,track(0)).
position((8,16),cell,track(0)).
position((8,17),cell,track(0)).
position((8,18),cell,track(0)).
position((8,19),cell,track(0)).
position((8,1),cell,track(0)).
position((8,20),cell,track(0)).
position((8,21),cell,track(0)).
position((8,22),cell,track(0)).
position((8,23),cell,track(0)).
position((8,24),cell,track(0)).
position((8,25),cell,track(0)).
position((8,26),cell,track(0)).
position((8,27),cell,track(0)).
position((8,28),cell,track(0)).
position((8,29),cell,track(0)).
position((8,2),cell,track(0)).
position((8,30),cell,track(0)).
position((8,31),cell,track(0)).
position((8,32),cell,track(0)).
position((8,33),cell,track(0)).
position((8,34),cell,track(0)).
position((8,35),cell,track(0)).
position((8,36),cell,track(0)).
position((8,37),cell,track(0)).
position((8,38),cell,track(0)).
position((8,39),cell,track(0)).
position((8,3),cell,track(0)).
position((8,4),cell,track(0)).
position((8,5),cell,track(0)).
position((8,6),cell,track(0)).
position((8,7),cell,track(0)).
position((8,8),cell,track(0)).
position((8,9),cell,track(0)).
position((9,0),cell,track(0)).
position((9,10),cell,track(0)).
position((9,11),cell,track(0)).
position((9,12),cell,track(0)).
position((9,13),cell,track(0)).
position((9,14),cell,track(0)).
position((9,15),cell,track(0)).
position((9,16),cell,track(0)).
position((9,17),cell,track(0)).
position((9,18),cell,track(0)).
position((9,19),cell,track(0)).
position((9,1),cell,track(0)).
position((9,20),cell,track(0)).
position((9,21),cell,track(0)).
position((9,22),cell,track(0)).
position((9,23),cell,track(0)).
position((9,24),cell,track(0)).
position((9,25),cell,track(0)).
position((9,26),cell,track(0)).
position((9,27),cell,track(0)).
position((9,28),cell,track(0)).
position((9,29),cell,track(0)).
position((9,2),cell,track(0)).
position((9,30),cell,track(0)).
position((9,31),cell,track(0)).
position((9,32),cell,track(0)).
position((9,33),cell,track(0)).
position((9,34),cell,track(0)).
position((9,35),cell,track(0)).
position((9,36),cell,track(0)).
position((9,37),cell,track(0)).
position((9,38),cell,track(0)).
position((9,39),cell,track(0)).
position((9,3),cell,track(0)).
position((9,4),cell,track(0)).
position((9,5),cell,track(0)).
position((9,6),cell,track(0)).
position((9,7),cell,track(0)).
position((9,8),cell,track(0)).
position((9,9),cell,track(0)).
property(train(0),arr,59).
property(train(0),dep,3).
property(train(0),direction,w).
property(train(0),speed,1).
property(train(1),arr,42).
property(train(1),dep,7).
property(train(1),direction,w).
property(train(1),speed,1).
node((R,C)):-Rmax=#max{RR:position((RR,_),_,_)},Cmax=#max{CC:position((_,CC),_,_)},R=0..Rmax,C=0..Cmax.
