%%%%%%%%%%%%%%%%%%%%%%%%%%%%%%%%%%%%%%%%%%%%%%%%%
%
% Size X and Y:		20
% Number of Agents:		15
%
%%%%%%%%%%%%%%%%%%%%%%%%%%%%%%%%%%%%%%%%%%%%%%%%%

#program base.

agent(1).
agent(2).
agent(3).
agent(4).
agent(5).
agent(6).
agent(7).
agent(8).
agent(9).
agent(10).
agent(11).
agent(12).
agent(13).
agent(14).
agent(15).
vertex((1,1)).
vertex((3,1)).
vertex((5,1)).
vertex((7,1)).
vertex((9,1)).
vertex((11,1)).
vertex((13,1)).
vertex((15,1)).
vertex((17,1)).
vertex((19,1)).
vertex((1,3)).
vertex((3,3)).
vertex((5,3)).
vertex((7,3)).
vertex((9,3)).
vertex((11,3)).
vertex((13,3)).
vertex((15,3)).
vertex((17,3)).
vertex((19,3)).
vertex((1,5)).
vertex((3,5)).
vertex((5,5)).
vertex((7,5)).
vertex((9,5)).
vertex((11,5)).
vertex((13,5)).
vertex((15,5)).
vertex((17,5)).
vertex((19,5)).
vertex((1,7)).
vertex((3,7)).
vertex((5,7)).
vertex((7,7)).
vertex((9,7)).
vertex((11,7)).
vertex((13,7)).
vertex((15,7)).
vertex((17,7)).
vertex((19,7)).
vertex((1,9)).
vertex((3,9)).
vertex((5,9)).
vertex((7,9)).
vertex((9,9)).
vertex((11,9)).
vertex((13,9)).
vertex((15,9)).
vertex((17,9)).
vertex((19,9)).
vertex((1,11)).
vertex((3,11)).
vertex((5,11)).
vertex((7,11)).
vertex((9,11)).
vertex((11,11)).
vertex((13,11)).
vertex((15,11)).
vertex((17,11)).
vertex((19,11)).
vertex((1,13)).
vertex((3,13)).
vertex((5,13)).
vertex((7,13)).
vertex((9,13)).
vertex((11,13)).
vertex((13,13)).
vertex((15,13)).
vertex((17,13)).
vertex((19,13)).
vertex((1,15)).
vertex((3,15)).
vertex((5,15)).
vertex((7,15)).
vertex((9,15)).
vertex((11,15)).
vertex((13,15)).
vertex((15,15)).
vertex((17,15)).
vertex((19,15)).
vertex((1,17)).
vertex((3,17)).
vertex((5,17)).
vertex((7,17)).
vertex((9,17)).
vertex((11,17)).
vertex((13,17)).
vertex((15,17)).
vertex((17,17)).
vertex((19,17)).
vertex((1,19)).
vertex((3,19)).
vertex((5,19)).
vertex((7,19)).
vertex((9,19)).
vertex((11,19)).
vertex((13,19)).
vertex((15,19)).
vertex((17,19)).
vertex((19,19)).
vertex((2,1)).
vertex((1,2)).
vertex((4,1)).
vertex((6,1)).
vertex((5,2)).
vertex((8,1)).
vertex((10,1)).
vertex((14,1)).
vertex((13,2)).
vertex((16,1)).
vertex((18,1)).
vertex((2,3)).
vertex((6,3)).
vertex((5,4)).
vertex((8,3)).
vertex((7,4)).
vertex((10,3)).
vertex((12,3)).
vertex((11,4)).
vertex((14,3)).
vertex((13,4)).
vertex((18,3)).
vertex((19,4)).
vertex((1,6)).
vertex((3,6)).
vertex((5,6)).
vertex((10,5)).
vertex((11,6)).
vertex((14,5)).
vertex((16,5)).
vertex((18,5)).
vertex((2,7)).
vertex((1,8)).
vertex((4,7)).
vertex((5,8)).
vertex((7,8)).
vertex((9,8)).
vertex((12,7)).
vertex((11,8)).
vertex((14,7)).
vertex((15,8)).
vertex((18,7)).
vertex((19,8)).
vertex((2,9)).
vertex((3,10)).
vertex((6,9)).
vertex((5,10)).
vertex((8,9)).
vertex((7,10)).
vertex((9,10)).
vertex((13,10)).
vertex((16,9)).
vertex((15,10)).
vertex((18,9)).
vertex((17,10)).
vertex((2,11)).
vertex((5,12)).
vertex((12,11)).
vertex((11,12)).
vertex((13,12)).
vertex((18,11)).
vertex((19,12)).
vertex((2,13)).
vertex((4,13)).
vertex((3,14)).
vertex((6,13)).
vertex((8,13)).
vertex((10,13)).
vertex((11,14)).
vertex((14,13)).
vertex((13,14)).
vertex((18,13)).
vertex((2,15)).
vertex((4,15)).
vertex((3,16)).
vertex((6,15)).
vertex((10,15)).
vertex((14,15)).
vertex((16,15)).
vertex((15,16)).
vertex((18,15)).
vertex((1,18)).
vertex((4,17)).
vertex((3,18)).
vertex((6,17)).
vertex((8,17)).
vertex((10,17)).
vertex((9,18)).
vertex((14,17)).
vertex((13,18)).
vertex((16,17)).
vertex((18,17)).
vertex((2,19)).
vertex((4,19)).
vertex((6,19)).
vertex((10,19)).
vertex((14,19)).
vertex((16,19)).
vertex((18,19)).
vertex((19,20)).
vertex((19,21)).

start(1,(13,10)).
goal(1,(16,9)).
goal(2,(19,20)).
start(2,(19,21)).
start(3,(15,16)).
goal(3,(4,17)).
start(4,(11,12)).
goal(4,(3,14)).
start(5,(11,19)).
goal(5,(1,8)).
start(6,(1,2)).
goal(6,(5,2)).
goal(7,(13,12)).
start(7,(14,19)).
goal(8,(18,3)).
start(8,(5,6)).
start(9,(1,18)).
goal(9,(9,18)).
goal(10,(15,5)).
start(10,(9,7)).
goal(11,(13,18)).
start(11,(2,19)).
start(12,(9,19)).
goal(12,(11,19)).
goal(13,(3,13)).
start(13,(7,13)).
start(14,(10,5)).
goal(14,(11,6)).
goal(15,(10,17)).
start(15,(9,18)).
