object(agent(10),agent).
object(agent(11),agent).
object(agent(12),agent).
object(agent(13),agent).
object(agent(14),agent).
object(agent(15),agent).
object(agent(1),agent).
object(agent(2),agent).
object(agent(3),agent).
object(agent(4),agent).
object(agent(5),agent).
object(agent(6),agent).
object(agent(7),agent).
object(agent(8),agent).
object(agent(9),agent).
position((10,17),end,agent(15)).
position((10,5),start,agent(14)).
position((11,12),start,agent(4)).
position((11,19),end,agent(12)).
position((11,19),start,agent(5)).
position((11,6),end,agent(14)).
position((1,18),start,agent(9)).
position((1,2),start,agent(6)).
position((13,10),start,agent(1)).
position((13,12),end,agent(7)).
position((13,18),end,agent(11)).
position((14,19),start,agent(7)).
position((15,16),start,agent(3)).
position((15,5),end,agent(10)).
position((16,9),end,agent(1)).
position((18,3),end,agent(8)).
position((1,8),end,agent(5)).
position((19,20),end,agent(2)).
position((19,21),start,agent(2)).
position((2,19),start,agent(11)).
position((3,13),end,agent(13)).
position((3,14),end,agent(4)).
position((4,17),end,agent(3)).
position((5,2),end,agent(6)).
position((5,6),start,agent(8)).
position((7,13),start,agent(13)).
position((9,18),end,agent(9)).
position((9,18),start,agent(15)).
position((9,19),start,agent(12)).
position((9,7),start,agent(10)).

property(agent(10),label,10).
property(agent(11),label,11).
property(agent(12),label,12).
property(agent(13),label,13).
property(agent(14),label,14).
property(agent(15),label,15).
property(agent(1),label,1).
property(agent(2),label,2).
property(agent(3),label,3).
property(agent(4),label,4).
property(agent(5),label,5).
property(agent(6),label,6).
property(agent(7),label,7).
property(agent(8),label,8).
property(agent(9),label,9).
% stat(agents,15).
% stat(height,20).
% stat(total_nodes,201).
% stat(width,22).


node((10,1)).
node((10,13)).
node((10,15)).
node((10,17)).
node((10,19)).
node((10,3)).
node((10,5)).
node((1,1)).
node((1,11)).
node((11,1)).
node((11,11)).
node((11,12)).
node((11,13)).
node((11,14)).
node((11,15)).
node((11,17)).
node((11,19)).
node((1,13)).
node((11,3)).
node((11,4)).
node((1,15)).
node((11,5)).
node((11,6)).
node((1,17)).
node((11,7)).
node((1,18)).
node((11,8)).
node((1,19)).
node((11,9)).
node((1,2)).
node((12,11)).
node((12,3)).
node((12,7)).
node((1,3)).
node((13,1)).
node((13,10)).
node((13,11)).
node((13,12)).
node((13,13)).
node((13,14)).
node((13,15)).
node((13,17)).
node((13,18)).
node((13,19)).
node((13,2)).
node((13,3)).
node((13,4)).
node((13,5)).
node((13,7)).
node((13,9)).
node((14,1)).
node((14,13)).
node((14,15)).
node((14,17)).
node((14,19)).
node((14,3)).
node((14,5)).
node((14,7)).
node((1,5)).
node((15,1)).
node((15,10)).
node((15,11)).
node((15,13)).
node((15,15)).
node((15,16)).
node((15,17)).
node((15,19)).
node((15,3)).
node((15,5)).
node((15,7)).
node((15,8)).
node((15,9)).
node((1,6)).
node((16,1)).
node((16,15)).
node((16,17)).
node((16,19)).
node((16,5)).
node((16,9)).
node((1,7)).
node((17,1)).
node((17,10)).
node((17,11)).
node((17,13)).
node((17,15)).
node((17,17)).
node((17,19)).
node((17,3)).
node((17,5)).
node((17,7)).
node((17,9)).
node((1,8)).
node((18,1)).
node((18,11)).
node((18,13)).
node((18,15)).
node((18,17)).
node((18,19)).
node((18,3)).
node((18,5)).
node((18,7)).
node((18,9)).
node((1,9)).
node((19,1)).
node((19,11)).
node((19,12)).
node((19,13)).
node((19,15)).
node((19,17)).
node((19,19)).
node((19,20)).
node((19,21)).
node((19,3)).
node((19,4)).
node((19,5)).
node((19,7)).
node((19,8)).
node((19,9)).
node((2,1)).
node((2,11)).
node((2,13)).
node((2,15)).
node((2,19)).
node((2,3)).
node((2,7)).
node((2,9)).
node((3,1)).
node((3,10)).
node((3,11)).
node((3,13)).
node((3,14)).
node((3,15)).
node((3,16)).
node((3,17)).
node((3,18)).
node((3,19)).
node((3,3)).
node((3,5)).
node((3,6)).
node((3,7)).
node((3,9)).
node((4,1)).
node((4,13)).
node((4,15)).
node((4,17)).
node((4,19)).
node((4,7)).
node((5,1)).
node((5,10)).
node((5,11)).
node((5,12)).
node((5,13)).
node((5,15)).
node((5,17)).
node((5,19)).
node((5,2)).
node((5,3)).
node((5,4)).
node((5,5)).
node((5,6)).
node((5,7)).
node((5,8)).
node((5,9)).
node((6,1)).
node((6,13)).
node((6,15)).
node((6,17)).
node((6,19)).
node((6,3)).
node((6,9)).
node((7,1)).
node((7,10)).
node((7,11)).
node((7,13)).
node((7,15)).
node((7,17)).
node((7,19)).
node((7,3)).
node((7,4)).
node((7,5)).
node((7,7)).
node((7,8)).
node((7,9)).
node((8,1)).
node((8,13)).
node((8,17)).
node((8,3)).
node((8,9)).
node((9,1)).
node((9,10)).
node((9,11)).
node((9,13)).
node((9,15)).
node((9,17)).
node((9,18)).
node((9,19)).
node((9,3)).
node((9,5)).
node((9,7)).
node((9,8)).
node((9,9)).

